 vasp.5.4.4.18Apr17-6-g9f103f2a35 (build Aug 19 2019 13:40:55) complex

 executed on             LinuxIFC date 2020.04.17  14:09:04

 INCAR:
 POTCAR:    PAW_PBE Pb_d 06Sep2000
 POTCAR:    PAW_PBE I 08Apr2002
 POTCAR:    PAW_PBE Cs_sv 08Apr2002

 POTCAR:    PAW_PBE Pb_d 06Sep2000
   VRHFIN =Pb:

   TITEL  = PAW_PBE Pb_d 06Sep2000
   POMASS =  207.200; ZVAL   =   14.000    mass and valenz
   ENMAX  =  237.835; ENMIN  =  178.376 eV

 POTCAR:    PAW_PBE I 08Apr2002
   VRHFIN =I : s2p5

   TITEL  = PAW_PBE I 08Apr2002
   POMASS =  126.904; ZVAL   =    7.000    mass and valenz
   ENMAX  =  175.647; ENMIN  =  131.735 eV

 POTCAR:    PAW_PBE Cs_sv 08Apr2002
   VRHFIN =Cs: 5s5p6s

   TITEL  = PAW_PBE Cs_sv 08Apr2002
   POMASS =  132.900; ZVAL   =    9.000    mass and valenz
   ENMAX  =  220.318; ENMIN  =  165.238 eV

  PAW_PBE Pb_d 06Sep2000                :
  PAW_PBE I 08Apr2002                   :
  PAW_PBE Cs_sv 08Apr2002               :

 POSCAR: delta-Cesium_Lead_Iodide
  positions in direct lattice
  velocities in cartesian coordinates
 exchange correlation table for  LEXCH =        8
   RHO(1)=    0.500       N(1)  =     2000
   RHO(2)=  100.500       N(2)  =     4000

 ion  position               nearest neighbor table
   1  0.161  0.250  0.439-   9 3.10   7 3.24   7 3.24  14 3.28  14 3.28  13 3.37
   2  0.839  0.750  0.561-  10 3.10   8 3.24   8 3.24  13 3.28  13 3.28  14 3.37
   3  0.339  0.750  0.939-  11 3.10   5 3.24   5 3.24  16 3.28  16 3.28  15 3.37
   4  0.661  0.250  0.061-  12 3.10   6 3.24   6 3.24  15 3.28  15 3.28  16 3.37
   5  0.160  0.250  0.002-   3 3.24   3 3.24
   6  0.840  0.750  0.998-   4 3.24   4 3.24
   7  0.340  0.750  0.502-   1 3.24   1 3.24
   8  0.660  0.250  0.498-   2 3.24   2 3.24
   9  0.300  0.250  0.285-   1 3.10
  10  0.700  0.750  0.715-   2 3.10
  11  0.200  0.750  0.785-   3 3.10
  12  0.800  0.250  0.215-   4 3.10
  13  0.034  0.250  0.614-   2 3.28   2 3.28   1 3.37
  14  0.966  0.750  0.386-   1 3.28   1 3.28   2 3.37
  15  0.466  0.750  0.114-   4 3.28   4 3.28   3 3.37
  16  0.534  0.250  0.886-   3 3.28   3 3.28   4 3.37
  17  0.417  0.250  0.672-
  18  0.583  0.750  0.328-
  19  0.083  0.750  0.172-
  20  0.917  0.250  0.828-

  LATTYP: Found a simple orthorhombic cell.
 ALAT       =     4.7905001640
 B/A-ratio  =     2.1781024798
 C/A-ratio  =     3.7075459914

  Lattice vectors:

 A1 = (   0.0000000000,  -4.7905001640,   0.0000000000)
 A2 = ( -10.4342002869,   0.0000000000,   0.0000000000)
 A3 = (   0.0000000000,   0.0000000000, -17.7609996796)

Analysis of symmetry for initial positions (statically):
 Subroutine PRICEL returns:
 Original cell was already a primitive cell.

 Routine SETGRP: Setting up the symmetry group for a
 simple orthorhombic supercell.

 Subroutine GETGRP returns: Found  8 space group operations
 (whereof  2 operations were pure point group operations)
 out of a pool of  8 trial point group operations.

The static configuration has the point symmetry S_2 .
 The point group associated with its full space group is D_2h.

Analysis of symmetry for dynamics (positions and initial velocities):
 Subroutine PRICEL returns:
 Original cell was already a primitive cell.

[...]

The dynamic configuration has the point symmetry S_2 .
 The point group associated with its full space group is D_2h.

Analysis of structural, dynamic, and magnetic symmetry:
 Subroutine PRICEL returns:
 Original cell was already a primitive cell.

 Routine SETGRP: Setting up the symmetry group for a
 simple orthorhombic supercell.

 Subroutine GETGRP returns: Found  2 space group operations
 (whereof  2 operations were pure point group operations)
 out of a pool of  8 trial point group operations.

The (compounded) configuration has the point symmetry S_2 .

 Subroutine INISYM returns: Found  2 space group operations
 (whereof  2 operations are pure point group operations),
 and found     1 'primitive' translations

 KPOINTS: KPT-Resolved Value to Generate K-Mesh: 0

Automatic generation of k-mesh.
Space group operators:
 irot       det(A)        alpha          n_x          n_y          n_z        tau_x        tau_y        tau_z
    1     1.000000     0.000000     1.000000     0.000000     0.000000     0.000000     0.000000     0.000000
    2    -1.000000     0.000000     1.000000     0.000000     0.000000     0.000000     0.000000     0.000000

 Subroutine IBZKPT returns following result:

 Found      6 irreducible k-points:

 Following reciprocal coordinates:
            Coordinates               Weight
  0.000000  0.000000  0.000000      1.000000
  0.500000  0.000000  0.000000      1.000000
  0.000000  0.200000  0.000000      2.000000
  0.500000  0.200000  0.000000      2.000000
  0.000000  0.400000  0.000000      2.000000
  0.500000  0.400000  0.000000      2.000000

 Following cartesian coordinates:
            Coordinates               Weight
  0.000000  0.000000  0.000000      1.000000
  0.047919  0.000000  0.000000      1.000000
  0.000000  0.041749  0.000000      2.000000
  0.047919  0.041749  0.000000      2.000000
  0.000000  0.083499  0.000000      2.000000
  0.047919  0.083499  0.000000      2.000000

 TETIRR: Found     27 inequivalent tetrahedra from       60

 SYSTEM =  unknown system
 POSCAR =  delta-Cesium_Lead_Iodide

 Startparameter for this run:
   NWRITE =      2    write-flag & timer
   PREC   = normal    normal or accurate (medium, high low for compatibility)
   ISTART =      1    job   : 0-new  1-cont  2-samecut
   ICHARG =     11    charge: 1-file 2-atom 10-const
   ISPIN  =      1    spin polarized calculation?
   LNONCOLLINEAR =      T non collinear calculations
   LSORBIT =      T    spin-orbit coupling
   INIWAV =      1    electr: 0-lowe 1-rand  2-diag
   LASPH  =      F    aspherical Exc in radial PAW
   METAGGA=      F    non-selfconsistent MetaGGA calc.

 Electronic Relaxation 1
   ENCUT  =  520.0 eV  33.07 Ry    5.75 a.u.  18.05  8.29 30.72*2*pi/ulx,y,z
   ENINI  =  520.0     initial cutoff
   ENAUG  =  407.9 eV  augmentation charge cutoff
   NELM   =     60;   NELMIN=  2; NELMDL=  0     # of ELM steps
   EDIFF  = 0.1E-04   stopping-criterion for ELM
   LREAL  =      F    real-space projection
   NLSPLINE    = F    spline interpolate recip. space projectors
   LCOMPAT=      F    compatible to vasp.4.4
   GGA_COMPAT  = F    GGA compatible to vasp.4.4-vasp.4.6
   LMAXPAW     = -100 max onsite density
   LMAXMIX     =    4 max onsite mixed and CHGCAR
   VOSKOWN=      1    Vosko Wilk Nusair interpolation
   ROPT   =    0.00000   0.00000   0.00000
 Ionic relaxation
   EDIFFG = 0.1E-03   stopping-criterion for IOM
   NSW    =      0    number of steps for IOM
   NBLOCK =      1;   KBLOCK =      1    inner block; outer block
   IBRION =     -1    ionic relax: 0-MD 1-quasi-New 2-CG
   NFREE  =      0    steps in history (QN), initial steepest desc. (CG)
   ISIF   =      2    stress and relaxation
   IWAVPR =     10    prediction:  0-non 1-charg 2-wave 3-comb
   ISYM   =      2    0-nonsym 1-usesym 2-fastsym
   LCORR  =      T    Harris-Foulkes like correction to forces

   POTIM  = 0.1000    time-step for ionic-motion
   TEIN   =    0.0    initial temperature
   TEBEG  =    0.0;   TEEND  =   0.0 temperature during run
   SMASS  =  -3.00    Nose mass-parameter (am)
   estimated Nose-frequenzy (Omega)   =  0.10E-29 period in steps =****** mass=  -0.249E-26a.u.
   SCALEE = 1.0000    scale energy and forces
   NPACO  =    256;   APACO  = 16.0  distance and # of slots for P.C.
   PSTRESS=    0.0 pullay stress

  Mass of Ions in am
   POMASS = 207.20126.90132.90
  Ionic Valenz
   ZVAL   =  14.00  7.00  9.00
  Atomic Wigner-Seitz radii
  virtual crystal weights
   VCA    =   1.00  1.00  1.00
   NELECT =     176.0000    total number of electrons
   NUPDOWN=      -1.0000    fix difference up-down

 DOS related values:
   EMIN   =  10.00;   EMAX   =-10.00  energy-range for DOS
   EFERMI =   0.00
   ISMEAR =    -5;   SIGMA  =   0.20  broadening in eV -4-tet -1-fermi 0-gaus

 Electronic relaxation 2 (details)
   IALGO  =     38    algorithm
   LDIAG  =      T    sub-space diagonalisation (order eigenvalues)
   LSUBROT=      F    optimize rotation matrix (better conditioning)
   TURBO    =      0    0=normal 1=particle mesh
   IRESTART =      0    0=no restart 2=restart with 2 vectors
   NREBOOT  =      0    no. of reboots
   NMIN     =      0    reboot dimension
   EREF     =   0.00    reference energy to select bands
   IMIX   =      4    mixing-type and parameters
     AMIX     =   0.40;   BMIX     =  1.00
     AMIX_MAG =   1.60;   BMIX_MAG =  1.00
     AMIN     =   0.10
     WC   =   100.;   INIMIX=   1;  MIXPRE=   1;  MAXMIX= -45

 Intra band minimization:
   WEIMIN = 0.0000     energy-eigenvalue tresh-hold
   EBREAK =  0.10E-07  absolut break condition
   DEPER  =   0.30     relativ break condition

   TIME   =   0.40     timestep for ELM

  volume/ion in A,a.u.               =      44.39       299.55
  Fermi-wavevector in a.u.,A,eV,Ry     =   0.954575  1.803885 12.397803  0.911213
  Thomas-Fermi vector in A             =   2.083334

 Write flags
   LWAVE        =      F    write WAVECAR
   LDOWNSAMPLE  =      F    k-point downsampling of WAVECAR
   LCHARG       =      F    write CHGCAR
   LVTOT        =      F    write LOCPOT, total local potential
   LVHAR        =      F    write LOCPOT, Hartree potential only
   LELF         =      F    write electronic localiz. function (ELF)
   LORBIT       =     10    0 simple, 1 ext, 2 COOP (PROOUT), +10 PAW based schemes

 Dipole corrections
   LMONO  =      F    monopole corrections only (constant potential shift)
   LDIPOL =      F    correct potential (dipole corrections)
   IDIPOL =      0    1-x, 2-y, 3-z, 4-all directions
   EPSILON=  1.0000000 bulk dielectric constant

 Exchange correlation treatment:
   GGA     =    --    GGA type
   VOSKOWN=      1    Vosko Wilk Nusair interpolation
   LHFCALC =     F    Hartree Fock is set to
   LHFONE  =     F    Hartree Fock one center treatment
   AEXX    =    0.0000 exact exchange contribution

 Linear response parameters
   LEPSILON=     F    determine dielectric tensor
   LRPA    =     F    only Hartree local field effects (RPA)
   LNABLA  =     F    use nabla operator in PAW spheres
   LVEL    =     F    velocity operator in full k-point grid
   LINTERFAST=   F  fast interpolation
   KINTER  =     0    interpolate to denser k-point grid
   CSHIFT  =0.1000    complex shift for real part using Kramers Kronig
   OMEGAMAX=  -1.0    maximum frequency
   DEG_THRESHOLD= 0.2000000E-02 threshold for treating states as degnerate
   RTIME   =   -0.100 relaxation time in fs
  (WPLASMAI=    0.000 imaginary part of plasma frequency in eV, 0.658/RTIME)
   DFIELD  = 0.0000000 0.0000000 0.0000000 field for delta impulse in time

 Orbital magnetization related:
   ORBITALMAG=     F  switch on orbital magnetization
   LCHIMAG   =     F  perturbation theory with respect to B field
   DQ        =  0.001000  dq finite difference perturbation B field
   LLRAUG    =     F  two centre corrections for induced B field

 Static calculation
 charge density and potential remain constant during run
 non collinear spin polarized calculation
 Variant of blocked Davidson
[...]
     14     -15.5518      1.00000
     15     -15.5518      1.00000
     16     -15.5518      1.00000
     17     -15.5397      1.00000
     18     -15.5397      1.00000
     19     -15.5397      1.00000
     20     -15.5397      1.00000
     21     -15.5388      1.00000
     22     -15.5388      1.00000
     23     -15.5388      1.00000
     24     -15.5388      1.00000
     25     -13.0057      1.00000
     26     -13.0057      1.00000
     27     -13.0055      1.00000
     28     -13.0055      1.00000
     29     -12.9988      1.00000
     30     -12.9988      1.00000
     31     -12.9987      1.00000
     32     -12.9987      1.00000
     33     -12.9970      1.00000
     34     -12.9970      1.00000
     35     -12.9970      1.00000
     36     -12.9970      1.00000
     37     -12.9953      1.00000
     38     -12.9953      1.00000
     39     -12.9952      1.00000
     40     -12.9952      1.00000
     41     -12.9733      1.00000
     42     -12.9733      1.00000
     43     -12.9733      1.00000
     44     -12.9733      1.00000
     45     -12.9700      1.00000
     46     -12.9700      1.00000
     47     -12.9699      1.00000
     48     -12.9699      1.00000
     49      -9.8817      1.00000
     50      -9.8817      1.00000
     51      -9.8527      1.00000
     52      -9.8527      1.00000
     53      -9.5730      1.00000
     54      -9.5730      1.00000
     55      -9.4722      1.00000
     56      -9.4722      1.00000
     57      -9.4420      1.00000
     58      -9.4419      1.00000
     59      -9.4407      1.00000
     60      -9.4407      1.00000
[...]
    226       8.2738      0.00000
    227       8.2801      0.00000
    228       8.2801      0.00000
    229       8.3470      0.00000
    230       8.3470      0.00000
    231       8.5175      0.00000
    232       8.5176      0.00000
    233       8.6102      0.00000
    234       8.6225      0.00000
    235       8.6611      0.00000
    236       8.6871      0.00000
    237       8.7171      0.00000
    238       8.7291      0.00000
    239       8.7502      0.00000
    240       8.8000      0.00000

[...]

 k-point     6 :       0.5000    0.4000    0.0000
  band No.  band energies     occupation
      1     -18.4741      1.00000
      2     -18.4741      1.00000
      3     -18.4741      1.00000
      4     -18.4741      1.00000
      5     -18.4740      1.00000
      6     -18.4740      1.00000
      7     -18.4740      1.00000
      8     -18.4740      1.00000
      9     -15.5555      1.00000
     10     -15.5555      1.00000
     11     -15.5555      1.00000
     12     -15.5555      1.00000
     13     -15.5552      1.00000
     14     -15.5552      1.00000
     15     -15.5552      1.00000
     16     -15.5552      1.00000
     17     -15.5372      1.00000
     18     -15.5372      1.00000
     19     -15.5372      1.00000
     20     -15.5372      1.00000
     21     -15.5369      1.00000
     22     -15.5369      1.00000
     23     -15.5369      1.00000
     24     -15.5369      1.00000
     25     -13.0157      1.00000
     26     -13.0157      1.00000
     27     -13.0157      1.00000
     28     -13.0157      1.00000
     29     -13.0150      1.00000
     30     -13.0149      1.00000
     31     -13.0149      1.00000
     32     -13.0149      1.00000
     33     -12.9941      1.00000
     34     -12.9941      1.00000
     35     -12.9941      1.00000
     36     -12.9941      1.00000
     37     -12.9913      1.00000
     38     -12.9913      1.00000
     39     -12.9913      1.00000
     40     -12.9913      1.00000
     41     -12.9698      1.00000
     42     -12.9698      1.00000
     43     -12.9698      1.00000
     44     -12.9698      1.00000
     45     -12.9692      1.00000
     46     -12.9691      1.00000
     47     -12.9691      1.00000
     48     -12.9691      1.00000
     49      -9.5396      1.00000
     50      -9.5396      1.00000
     51      -9.5396      1.00000
     52      -9.5396      1.00000
     53      -9.4396      1.00000
     54      -9.4396      1.00000
     55      -9.4385      1.00000
     56      -9.4385      1.00000
     57      -9.3148      1.00000
     58      -9.3148      1.00000
     59      -9.3134      1.00000
     60      -9.3134      1.00000
[...]
    226       8.2330      0.00000
    227       8.2363      0.00000
    228       8.2364      0.00000
    229       8.4341      0.00000
    230       8.4341      0.00000
    231       8.4491      0.00000
    232       8.4492      0.00000
    233       8.7186      0.00000
    234       8.7186      0.00000
    235       8.7187      0.00000
    236       8.7187      0.00000
    237       8.8646      0.00000
    238       8.8675      0.00000
    239       8.8769      0.00000
    240       8.8936      0.00000

 soft charge-density along one line, spin component           1
         0         1         2         3         4         5         6         7         8         9
 total charge-density along one line

[...]

 soft charge-density along one line, spin component           4
         0         1         2         3         4         5         6         7         8         9
 total charge-density along one line

------------------------ aborting loop because EDIFF is reached ----------------------------------------

 total charge

# of ion       s       p       d       tot
    1        1.491   0.505   9.837  11.833
    2        1.491   0.505   9.837  11.833
    3        1.491   0.505   9.837  11.833
    4        1.491   0.505   9.837  11.833
    5        1.508   2.795   0.008   4.310
    6        1.508   2.795   0.008   4.310
    7        1.508   2.795   0.008   4.310
    8        1.508   2.795   0.008   4.310
    9        1.504   2.812   0.006   4.322
   10        1.504   2.812   0.006   4.322
   11        1.504   2.812   0.006   4.322
   12        1.504   2.812   0.006   4.322
   13        1.510   2.781   0.009   4.300
   14        1.510   2.781   0.009   4.300
   15        1.510   2.781   0.009   4.300
   16        1.510   2.781   0.009   4.300
   17        1.843   4.704   0.029   6.576
   18        1.843   4.704   0.029   6.576
   19        1.843   4.704   0.029   6.576
   20        1.843   4.704   0.029   6.576
tot         31.426  54.385  39.555 125.365

 magnetization (x)

[...]

 magnetization (y)

[...]

 magnetization (z)

[...]

  FORCE on cell =-STRESS in cart. coord.  units (eV):
  Direction    XX          YY          ZZ          XY          YZ          ZX
  Alpha Z   296.55173   296.55173   296.55173
  Ewald   -3119.99048 -2510.75675 -3332.62673    -0.00001     0.00000    -0.00015
  Hartree  1054.51585  1570.60437   816.32058    -0.00000    -0.00000    -0.00005
  E(xc)    -729.56903  -729.35290  -729.31282     0.00000     0.00000     0.00000
  Local   -1441.55552 -2562.23746  -988.53714     0.00002     0.00002     0.00020
  n-local  1991.63806  1991.11703  1993.31214    -0.00001    -0.00001    -0.00000
  augment    -6.41255    -4.93846    -5.18151     0.00000     0.00000     0.00000
  Kinetic  1961.26545  1955.55501  1955.72020     0.00000     0.00000     0.00000
  Fock        0.00000     0.00000     0.00000     0.00000     0.00000     0.00000
  Total       6.44351     6.54256     6.24644     0.00001     0.00001    -0.00000
  in kB      11.62855    11.80731    11.27291     0.00001     0.00001    -0.00000

 VOLUME and BASIS-vectors are now :
  energy-cutoff  :      450.00
  volume of cell :      887.78
      direct lattice vectors                 reciprocal lattice vectors
    10.434200287  0.000000000  0.000000000     0.095838682  0.000000000  0.000000000
     0.000000000  4.790500164  0.000000000     0.000000000  0.208746470  0.000000000
     0.000000000  0.000000000 17.760999680     0.000000000  0.000000000  0.056303137

  length of vectors
    10.434200287  4.790500164 17.760999680     0.095838682  0.208746470  0.056303137

 FORCES acting on ions
    electron-ion (+dipol)            ewald-force                    non-local-force                 convergence-correction
   -.625E+02 -.104E-03 0.526E+02   0.607E+02 -.183E-04 -.506E+02   0.179E+01 -.314E-04 -.204E+01   -.495E-02 0.112E-03 0.671E-02
   0.625E+02 0.200E-03 -.526E+02   -.607E+02 0.183E-04 0.506E+02   -.179E+01 0.314E-04 0.204E+01   0.387E-02 -.302E-03 -.771E-02
   0.625E+02 0.200E-03 0.526E+02   -.607E+02 0.183E-04 -.506E+02   -.179E+01 0.314E-04 -.204E+01   0.502E-02 -.303E-03 0.100E-01
   -.625E+02 -.105E-03 -.526E+02   0.607E+02 -.183E-04 0.506E+02   0.179E+01 -.314E-04 0.204E+01   -.509E-02 0.113E-03 -.728E-02
   0.923E+02 0.925E-05 -.480E+02   -.940E+02 -.117E-04 0.486E+02   0.162E+01 0.964E-05 -.517E+00   -.694E-02 0.252E-04 0.405E-02
   -.923E+02 0.539E-04 0.480E+02   0.940E+02 0.117E-04 -.486E+02   -.162E+01 -.964E-05 0.517E+00   0.704E-02 -.267E-04 -.391E-02
   -.923E+02 0.485E-04 -.480E+02   0.940E+02 0.117E-04 0.486E+02   -.162E+01 -.650E-05 -.517E+00   0.706E-02 -.238E-04 0.404E-02
   0.923E+02 0.146E-04 0.480E+02   -.940E+02 -.117E-04 -.486E+02   0.162E+01 0.650E-05 0.517E+00   -.701E-02 0.222E-04 -.397E-02
   -.398E+02 0.149E-04 0.767E+02   0.405E+02 -.489E-05 -.781E+02   -.775E+00 0.614E-05 0.143E+01   -.153E-02 0.123E-04 -.139E-02
   0.398E+02 0.513E-04 -.767E+02   -.405E+02 0.489E-05 0.781E+02   0.775E+00 -.614E-05 -.143E+01   0.149E-02 -.213E-04 0.135E-02
   0.398E+02 0.616E-04 0.767E+02   -.405E+02 0.489E-05 -.781E+02   0.775E+00 -.104E-04 0.143E+01   0.149E-02 -.280E-04 -.148E-02
   -.398E+02 0.463E-05 -.767E+02   0.405E+02 -.489E-05 0.781E+02   -.775E+00 0.104E-04 -.143E+01   -.154E-02 0.190E-04 0.135E-02
   -.650E+02 0.101E-04 -.122E+03   0.662E+02 -.969E-05 0.123E+03   -.121E+01 0.756E-05 -.145E+01   0.559E-02 0.236E-04 0.735E-02
   0.650E+02 0.561E-04 0.122E+03   -.662E+02 0.969E-05 -.123E+03   0.121E+01 -.756E-05 0.145E+01   -.558E-02 -.284E-04 -.735E-02
   0.650E+02 0.534E-04 -.122E+03   -.662E+02 0.969E-05 0.123E+03   0.121E+01 -.738E-05 -.145E+01   -.566E-02 -.263E-04 0.738E-02
   -.650E+02 0.128E-04 0.122E+03   0.662E+02 -.969E-05 -.123E+03   -.121E+01 0.738E-05 0.145E+01   0.564E-02 0.216E-04 -.730E-02
   -.194E+00 0.157E-04 -.121E+02   0.290E+00 -.548E-05 0.123E+02   -.936E-01 -.122E-06 -.125E+00   -.187E-02 0.174E-04 0.371E-03
   0.194E+00 0.535E-04 0.121E+02   -.290E+00 0.548E-05 -.123E+02   0.936E-01 0.122E-06 0.125E+00   0.189E-02 -.364E-04 -.484E-03
   0.194E+00 0.589E-04 -.121E+02   -.290E+00 0.548E-05 0.123E+02   0.936E-01 -.656E-06 -.125E+00   0.199E-02 -.412E-04 0.423E-03
   -.194E+00 0.104E-04 0.121E+02   0.290E+00 -.548E-05 -.123E+02   -.936E-01 0.656E-06 0.125E+00   -.195E-02 0.221E-04 -.420E-03
   0.290E-03 0.721E-03 -.207E-02   0.422E-14 0.171E-14 0.462E-13   0.000E+00 0.000E+00 0.000E+00   -.103E-02 -.449E-03 0.175E-02

 POSITION                                       TOTAL-FORCE (eV/Angst)
      1.67927      1.19763      7.79733         0.002989      0.000005     -0.018294
      8.75493      3.59288      9.96367        -0.002989     -0.000005      0.018294
      3.53783      3.59288     16.67783        -0.002994     -0.000006     -0.018271
      6.89637      1.19763      1.08317         0.002994      0.000006      0.018271
      1.66861      1.19763      0.03521        -0.017130      0.000002      0.011724
      8.76559      3.59288     17.72579         0.017130     -0.000002     -0.011724
      3.54849      3.59288      8.91571         0.017125     -0.000001      0.011725
      6.88571      1.19763      8.84529        -0.017125      0.000001     -0.011725
      3.13268      1.19763      5.06151        -0.000728     -0.000000     -0.002340
      7.30152      3.59288     12.69949         0.000728      0.000000      0.002340
      2.08442      3.59288     13.94201         0.000721     -0.000000     -0.002347
      8.34978      1.19763      3.81899        -0.000721      0.000000      0.002347
      0.35353      1.19763     10.90043         0.002510      0.000001      0.021590
     10.08067      3.59288      6.86057        -0.002510     -0.000001     -0.021590
      4.86357      3.59288      2.01993        -0.002512     -0.000001      0.021591
      5.57063      1.19763     15.74107         0.002512      0.000001     -0.021591
      4.35243      1.19763     11.93416         0.000812      0.000002     -0.001202
      6.08177      3.59288      5.82684        -0.000812     -0.000002      0.001202
      0.86467      3.59288      3.05366        -0.000797     -0.000003     -0.001183
      9.56953      1.19763     14.70734         0.000797      0.000003      0.001183
    total drift:                               -0.000739      0.000273     -0.000319

  FREE ENERGIE OF THE ION-ELECTRON SYSTEM (eV)
  free  energy   TOTEN  =       -60.37504625 eV

  energy  without entropy=      -60.37504625  energy(sigma->0) =      -60.37504625

 Spin-Orbit-Coupling matrix elements

 Ion:    1  E_soc:     -0.8118247
 l=   1
     0.0000000    -0.0683851    -0.0664842
    -0.0683851     0.0000000    -0.0696307
    -0.0664842    -0.0696307     0.0000000
 l=   2
     0.0000000    -0.0134565     0.0000000    -0.0134846    -0.0536628
    -0.0134565     0.0000000    -0.0402755    -0.0134206    -0.0134011
     0.0000000    -0.0402755     0.0000000    -0.0403304     0.0000000
    -0.0134846    -0.0134206    -0.0403304     0.0000000    -0.0133808
    -0.0536628    -0.0134011     0.0000000    -0.0133808     0.0000000
 l=   3
     0.0000000     0.0000000     0.0000000     0.0000000     0.0000000     0.0000000     0.0000000
     0.0000000     0.0000000     0.0000000     0.0000000     0.0000000     0.0000000     0.0000000
     0.0000000     0.0000000     0.0000000     0.0000000     0.0000000     0.0000000     0.0000000
     0.0000000     0.0000000     0.0000000     0.0000000     0.0000000     0.0000000     0.0000000
     0.0000000     0.0000000     0.0000000     0.0000000     0.0000000     0.0000000     0.0000000
     0.0000000     0.0000000     0.0000000     0.0000000     0.0000000     0.0000000     0.0000000
     0.0000000     0.0000000     0.0000000     0.0000000     0.0000000     0.0000000     0.0000000

[...]

 Ion:   20  E_soc:     -0.2846674
 l=   1
     0.0000000    -0.0473984    -0.0474686
    -0.0473984     0.0000000    -0.0472526
    -0.0474686    -0.0472526     0.0000000
 l=   2
     0.0000000    -0.0000217     0.0000000    -0.0000183    -0.0000611
    -0.0000217     0.0000000    -0.0000429    -0.0000173    -0.0000095
     0.0000000    -0.0000429     0.0000000    -0.0000336     0.0000000
    -0.0000183    -0.0000173    -0.0000336     0.0000000    -0.0000098
    -0.0000611    -0.0000095     0.0000000    -0.0000098     0.0000000
 l=   3
     0.0000000     0.0000000     0.0000000     0.0000000     0.0000000     0.0000000     0.0000000
     0.0000000     0.0000000     0.0000000     0.0000000     0.0000000     0.0000000     0.0000000
     0.0000000     0.0000000     0.0000000     0.0000000     0.0000000     0.0000000     0.0000000
     0.0000000     0.0000000     0.0000000     0.0000000     0.0000000     0.0000000     0.0000000
     0.0000000     0.0000000     0.0000000     0.0000000     0.0000000     0.0000000     0.0000000
     0.0000000     0.0000000     0.0000000     0.0000000     0.0000000     0.0000000     0.0000000
     0.0000000     0.0000000     0.0000000     0.0000000     0.0000000     0.0000000     0.0000000

 total charge

[...]

 magnetization (x)

[...]

 magnetization (y)

[...]

 magnetization (z)

# of ion       s       p       d       tot
    1        0.001   0.000  -0.000   0.001
    2       -0.001  -0.000   0.000  -0.001
    3       -0.001  -0.000   0.000  -0.001
    4        0.001   0.000  -0.000   0.001
    5        0.000   0.000  -0.000   0.001
    6       -0.000  -0.000   0.000  -0.001
    7       -0.000  -0.000   0.000  -0.001
    8        0.000   0.000  -0.000   0.001
    9       -0.000   0.000   0.000   0.000
   10        0.000  -0.000  -0.000  -0.000
   11        0.000  -0.000  -0.000  -0.000
   12       -0.000   0.000   0.000   0.000
   13       -0.001  -0.001   0.000  -0.001
   14        0.001   0.001  -0.000   0.001
   15        0.001   0.001  -0.000   0.001
   16       -0.001  -0.001   0.000  -0.001
   17       -0.000  -0.000  -0.000  -0.000
   18        0.000   0.000   0.000   0.000
   19        0.000   0.000   0.000   0.000
   20       -0.000  -0.000  -0.000  -0.000
tot         -0.000  -0.000   0.000  -0.000

 BZINTS: Fermi energy:  2.075067;176.000000 electrons
         Band energy:***********;  BLOECHL correction:  0.000000
 BZINTS: Fermi energy:  2.075067;176.000000 electrons
         Band energy:***********;  BLOECHL correction:  0.000000
 BZINTS: Fermi energy:  2.075067;176.000000 electrons
         Band energy:***********;  BLOECHL correction:  0.000000
 BZINTS: Fermi energy:  2.075067;176.000000 electrons
         Band energy:***********;  BLOECHL correction:  0.000000