 vasp.5.4.4.18Apr17-6-g9f103f2a35 (build Aug 19 2019 13:15:05) complex

 executed on             LinuxIFC date 2020.05.13  17:02:42

 INCAR:
 POTCAR:    PAW_PBE I 08Apr2002
 POTCAR:    PAW_PBE Pb_d 06Sep2000
 POTCAR:    PAW_PBE Cs_sv 08Apr2002

 POTCAR:    PAW_PBE I 08Apr2002
   VRHFIN =I : s2p5

   TITEL  = PAW_PBE I 08Apr2002
   POMASS =  126.904; ZVAL   =    7.000    mass and valenz
   ENMAX  =  175.647; ENMIN  =  131.735 eV

 POTCAR:    PAW_PBE Pb_d 06Sep2000
   VRHFIN =Pb:

   TITEL  = PAW_PBE Pb_d 06Sep2000
   POMASS =  207.200; ZVAL   =   14.000    mass and valenz
   ENMAX  =  237.835; ENMIN  =  178.376 eV

 POTCAR:    PAW_PBE Cs_sv 08Apr2002
   VRHFIN =Cs: 5s5p6s

   TITEL  = PAW_PBE Cs_sv 08Apr2002
   POMASS =  132.900; ZVAL   =    9.000    mass and valenz
   ENMAX  =  220.318; ENMIN  =  165.238 eV

  PAW_PBE I 08Apr2002                   :
  PAW_PBE Pb_d 06Sep2000                :
  PAW_PBE Cs_sv 08Apr2002               :

 POSCAR: CsPbI3_325K
  positions in direct lattice
  velocities in cartesian coordinates
 exchange correlation table for  LEXCH =        8
   RHO(1)=    0.500       N(1)  =     2000
   RHO(2)=  100.500       N(2)  =     4000

 ion  position               nearest neighbor table
   1  0.192  0.306  0.540-  14 3.21  13 3.21
   2  0.808  0.694  0.460-  14 3.21  13 3.21
   3  0.692  0.194  0.460-  13 3.21  14 3.21
   4  0.308  0.806  0.540-  13 3.21  14 3.21
   5  0.808  0.694  0.040-  16 3.21  15 3.21
   6  0.192  0.306  0.960-  16 3.21  15 3.21
   7  0.308  0.806  0.960-  15 3.21  16 3.21
   8  0.692  0.194  0.040-  15 3.21  16 3.21
   9  0.918  0.000  0.750-  15 3.21  13 3.21
  10  0.082  1.000  0.250-  13 3.21  15 3.21
  11  0.418  0.500  0.250-  14 3.21  16 3.21
  12  0.582  0.500  0.750-  16 3.21  14 3.21
  13  0.000  0.000  0.500-   3 3.21   4 3.21  10 3.21   9 3.21   1 3.21   2 3.21
  14  0.500  0.500  0.500-   2 3.21   1 3.21  11 3.21  12 3.21   3 3.21   4 3.21
  15  0.000  0.000  0.000-   8 3.21   7 3.21   9 3.21  10 3.21   6 3.21   5 3.21
  16  0.500  0.500  0.000-   5 3.21   6 3.21  12 3.21  11 3.21   8 3.21   7 3.21
  17  0.978  0.424  0.250-
  18  0.022  0.576  0.750-
  19  0.478  0.076  0.750-
  20  0.522  0.924  0.250-

  LATTYP: Found a simple orthorhombic cell.
 ALAT       =     8.6751003265
 B/A-ratio  =     1.0171640703
 C/A-ratio  =     1.4438795264

  Lattice vectors:

 A1 = (   8.6751003265,   0.0000000000,   0.0000000000)
 A2 = (   0.0000000000,   8.8240003586,   0.0000000000)
 A3 = (   0.0000000000,   0.0000000000,  12.5257997513)

Analysis of symmetry for initial positions (statically):
 Subroutine PRICEL returns:
 Original cell was already a primitive cell.

 Routine SETGRP: Setting up the symmetry group for a
 simple orthorhombic supercell.

 Subroutine GETGRP returns: Found  8 space group operations
 (whereof  2 operations were pure point group operations)
 out of a pool of  8 trial point group operations.

The static configuration has the point symmetry S_2 .
 The point group associated with its full space group is D_2h.

Analysis of symmetry for dynamics (positions and initial velocities):
 Subroutine PRICEL returns:
 Original cell was already a primitive cell.

 Routine SETGRP: Setting up the symmetry group for a
 simple orthorhombic supercell.

 Subroutine GETGRP returns: Found  8 space group operations
 (whereof  2 operations were pure point group operations)
 out of a pool of  8 trial point group operations.

The dynamic configuration has the point symmetry S_2 .
 The point group associated with its full space group is D_2h.

 Subroutine INISYM returns: Found  8 space group operations
 (whereof  2 operations are pure point group operations),
 and found     1 'primitive' translations

 KPOINTS: K-Mesh Generated with KP-Resolved Value

Automatic generation of k-mesh.
Space group operators:
 irot       det(A)        alpha          n_x          n_y          n_z        tau_x        tau_y        tau_z
    1     1.000000     0.000000     1.000000     0.000000     0.000000     0.000000     0.000000     0.000000
    2    -1.000000     0.000000     1.000000     0.000000     0.000000     0.000000     0.000000     0.000000
    3     1.000000   180.000000     0.000000     0.000000     1.000000     0.000000     0.000000     0.500000
    4    -1.000000   180.000000     0.000000     0.000000     1.000000     0.000000     0.000000     0.500000
    5     1.000000   180.000000     0.000000     1.000000     0.000000     0.500000     0.500000     0.500000
    6    -1.000000   180.000000     0.000000     1.000000     0.000000     0.500000     0.500000     0.500000
    7     1.000000   179.999999     1.000000     0.000000     0.000000     0.500000     0.500000     0.000000
    8    -1.000000   179.999999     1.000000     0.000000     0.000000     0.500000     0.500000     0.000000

 Subroutine IBZKPT returns following result:

 Found    100 irreducible k-points:

 Following reciprocal coordinates:
            Coordinates               Weight
  0.000000  0.000000  0.000000      1.000000
  0.125000  0.000000  0.000000      2.000000
  0.250000  0.000000  0.000000      2.000000
  0.375000  0.000000  0.000000      2.000000
  0.500000  0.000000  0.000000      1.000000
  0.000000  0.125000  0.000000      2.000000
  0.125000  0.125000  0.000000      4.000000
  0.250000  0.125000  0.000000      4.000000
  0.375000  0.125000  0.000000      4.000000
  0.500000  0.125000  0.000000      2.000000
  0.000000  0.250000  0.000000      2.000000
  0.125000  0.250000  0.000000      4.000000
  0.250000  0.250000  0.000000      4.000000
  0.375000  0.250000  0.000000      4.000000
  0.500000  0.250000  0.000000      2.000000
  0.000000  0.375000  0.000000      2.000000
  0.125000  0.375000  0.000000      4.000000
  0.250000  0.375000  0.000000      4.000000
  0.375000  0.375000  0.000000      4.000000
  0.500000  0.375000  0.000000      2.000000
  0.000000  0.500000  0.000000      1.000000
  0.125000  0.500000  0.000000      2.000000
  0.250000  0.500000  0.000000      2.000000
  0.375000  0.500000  0.000000      2.000000
  0.500000  0.500000  0.000000      1.000000
  0.000000  0.000000  0.166667      2.000000
  0.125000  0.000000  0.166667      4.000000
  0.250000  0.000000  0.166667      4.000000
  0.375000  0.000000  0.166667      4.000000
  0.500000  0.000000  0.166667      2.000000
  0.000000  0.125000  0.166667      4.000000
  0.125000  0.125000  0.166667      8.000000
  0.250000  0.125000  0.166667      8.000000
  0.375000  0.125000  0.166667      8.000000
  0.500000  0.125000  0.166667      4.000000
  0.000000  0.250000  0.166667      4.000000
  0.125000  0.250000  0.166667      8.000000
  0.250000  0.250000  0.166667      8.000000
  0.375000  0.250000  0.166667      8.000000
  0.500000  0.250000  0.166667      4.000000
  0.000000  0.375000  0.166667      4.000000
  0.125000  0.375000  0.166667      8.000000
  0.250000  0.375000  0.166667      8.000000
  0.375000  0.375000  0.166667      8.000000
  0.500000  0.375000  0.166667      4.000000
  0.000000  0.500000  0.166667      2.000000
  0.125000  0.500000  0.166667      4.000000
  0.250000  0.500000  0.166667      4.000000
  0.375000  0.500000  0.166667      4.000000
  0.500000  0.500000  0.166667      2.000000
  0.000000  0.000000  0.333333      2.000000
  0.125000  0.000000  0.333333      4.000000
  0.250000  0.000000  0.333333      4.000000
  0.375000  0.000000  0.333333      4.000000
  0.500000  0.000000  0.333333      2.000000
  0.000000  0.125000  0.333333      4.000000
  0.125000  0.125000  0.333333      8.000000
  0.250000  0.125000  0.333333      8.000000
  0.375000  0.125000  0.333333      8.000000
  0.500000  0.125000  0.333333      4.000000
[...]
  0.000000  0.250000  0.500000      2.000000
  0.125000  0.250000  0.500000      4.000000
  0.250000  0.250000  0.500000      4.000000
  0.375000  0.250000  0.500000      4.000000
  0.500000  0.250000  0.500000      2.000000
  0.000000  0.375000  0.500000      2.000000
  0.125000  0.375000  0.500000      4.000000
  0.250000  0.375000  0.500000      4.000000
  0.375000  0.375000  0.500000      4.000000
  0.500000  0.375000  0.500000      2.000000
  0.000000  0.500000  0.500000      1.000000
  0.125000  0.500000  0.500000      2.000000
  0.250000  0.500000  0.500000      2.000000
  0.375000  0.500000  0.500000      2.000000
  0.500000  0.500000  0.500000      1.000000

 Following cartesian coordinates:
            Coordinates               Weight
  0.000000  0.000000  0.000000      1.000000
  0.014409  0.000000  0.000000      2.000000
  0.028818  0.000000  0.000000      2.000000
  0.043227  0.000000  0.000000      2.000000
  0.057636  0.000000  0.000000      1.000000
  0.000000  0.014166  0.000000      2.000000
  0.014409  0.014166  0.000000      4.000000
  0.028818  0.014166  0.000000      4.000000
  0.043227  0.014166  0.000000      4.000000
  0.057636  0.014166  0.000000      2.000000
  0.000000  0.028332  0.000000      2.000000
  0.014409  0.028332  0.000000      4.000000
  0.028818  0.028332  0.000000      4.000000
  0.043227  0.028332  0.000000      4.000000
  0.057636  0.028332  0.000000      2.000000
  0.000000  0.042498  0.000000      2.000000
  0.014409  0.042498  0.000000      4.000000
  0.028818  0.042498  0.000000      4.000000
  0.043227  0.042498  0.000000      4.000000
  0.057636  0.042498  0.000000      2.000000
  0.000000  0.056664  0.000000      1.000000
  0.014409  0.056664  0.000000      2.000000
  0.028818  0.056664  0.000000      2.000000
  0.043227  0.056664  0.000000      2.000000
  0.057636  0.056664  0.000000      1.000000
  0.000000  0.000000  0.013306      2.000000
  0.014409  0.000000  0.013306      4.000000
  0.028818  0.000000  0.013306      4.000000
  0.043227  0.000000  0.013306      4.000000
  0.057636  0.000000  0.013306      2.000000
  0.000000  0.014166  0.013306      4.000000
  0.014409  0.014166  0.013306      8.000000
  0.028818  0.014166  0.013306      8.000000
  0.043227  0.014166  0.013306      8.000000
  0.057636  0.014166  0.013306      4.000000
  0.000000  0.028332  0.013306      4.000000
  0.014409  0.028332  0.013306      8.000000
  0.028818  0.028332  0.013306      8.000000
  0.043227  0.028332  0.013306      8.000000
  0.057636  0.028332  0.013306      4.000000
  0.000000  0.042498  0.013306      4.000000
  0.014409  0.042498  0.013306      8.000000
  0.028818  0.042498  0.013306      8.000000
  0.043227  0.042498  0.013306      8.000000
  0.057636  0.042498  0.013306      4.000000
  0.000000  0.056664  0.013306      2.000000
  0.014409  0.056664  0.013306      4.000000
  0.028818  0.056664  0.013306      4.000000
  0.043227  0.056664  0.013306      4.000000
  0.057636  0.056664  0.013306      2.000000
  0.000000  0.000000  0.026612      2.000000
  0.014409  0.000000  0.026612      4.000000
  0.028818  0.000000  0.026612      4.000000
  0.043227  0.000000  0.026612      4.000000
  0.057636  0.000000  0.026612      2.000000
  0.000000  0.014166  0.026612      4.000000
  0.014409  0.014166  0.026612      8.000000
  0.028818  0.014166  0.026612      8.000000
  0.043227  0.014166  0.026612      8.000000
  0.057636  0.014166  0.026612      4.000000
[...]
  0.000000  0.028332  0.039918      2.000000
[...]
 k-point 97 :   0.1250 0.5000 0.5000  plane waves:   25812
 k-point 98 :   0.2500 0.5000 0.5000  plane waves:   25820
 k-point 99 :   0.3750 0.5000 0.5000  plane waves:   25808
 k-point ** :   0.5000 0.5000 0.5000  plane waves:   25800

 maximum and minimum number of plane-waves per node :     12972    12844

 maximum number of plane-waves:     25880
 maximum index in each direction:
   IXMAX=   16   IYMAX=   16   IZMAX=   23
   IXMIN=  -16   IYMIN=  -16   IZMIN=  -23

 parallel 3D FFT for wavefunctions:
    minimum data exchange during FFTs selected (reduces bandwidth)
 parallel 3D FFT for charge:
    minimum data exchange during FFTs selected (reduces bandwidth)

 Broyden mixing: mesh for mixing (old mesh)
   NGX = 33   NGY = 33   NGZ = 47
  (NGX  =140   NGY  =140   NGZ  =192)
  gives a total of  51183 points

 initial charge density was supplied:
 charge density of overlapping atoms calculated
 number of electron     176.0000000 magnetization
 keeping initial charge density in first step

 Maximum index for augmentation-charges         1074 (set IRDMAX)

 First call to EWALD:  gamma=   0.180
 Maximum number of real-space cells 3x 3x 2
 Maximum number of reciprocal cells 2x 3x 3

--------------------------------------- Iteration      1(   1)  ---------------------------------------

 eigenvalue-minimisations  : 24000
 total energy-change (2. order) : 0.1471737E+04  (-0.6977084E+04)
 number of electron     176.0000000 magnetization
 augmentation part      176.0000000 magnetization

 Free energy of the ion-electron system (eV)
  alpha Z        PSCENC =       274.57589780
  Ewald energy   TEWEN  =     -8733.92648156
  -Hartree energ DENC   =     -3555.26968032
  -exchange      EXHF   =         0.00000000
  -V(xc)+E(xc)   XCENC  =        32.59385958
  PAW double counting   =     10703.56087596   -10293.56226698
  entropy T*S    EENTRO =        -0.17914228
  eigenvalues    EBANDS =       384.35386786
  atomic energy  EATOM  =     12659.59018207
  Solvation  Ediel_sol  =         0.00000000
  free energy    TOTEN  =      1471.73711213 eV

  energy without entropy =     1471.91625441  energy(sigma->0) =     1471.82668327

[...]

 eigenvalue-minimisations  : 28104
 total energy-change (2. order) :-0.1350628E+04  (-0.1300195E+04)
 number of electron     176.0000000 magnetization
 augmentation part      176.0000000 magnetization

[...]

 Broyden mixing:
  rms(total) = 0.67189E+00    rms(broyden)= 0.67188E+00
  rms(prec ) = 0.85173E+00
  weight for this iteration     100.00

[...]

 eigenvalues of (default mixing * dielectric matrix)
  average eigenvalue GAMMA=   2.0508
  2.0508

[...]

 eigenvalue-minimisations  : 32184
 total energy-change (2. order) : 0.3688638E-06  (-0.5876617E-05)
 number of electron     175.9999984 magnetization
 augmentation part       -5.7922053 magnetization

[...]

 Broyden mixing:
  rms(total) = 0.34031E-03    rms(broyden)= 0.34031E-03
  rms(prec ) = 0.35458E-03
  weight for this iteration     100.00

 eigenvalues of (default mixing * dielectric matrix)
  average eigenvalue GAMMA=   1.5804
  3.1702  2.7232  2.0776  1.4186  1.0716  1.0828  1.0828  0.7982  0.7982

[...]

--------------------------------------- Iteration      1(  15)  ---------------------------------------

 eigenvalue-minimisations  : 25776
 total energy-change (2. order) :-0.9877294E-07  (-0.2393873E-07)
 number of electron     175.9999984 magnetization
 augmentation part       -5.7919323 magnetization

 Free energy of the ion-electron system (eV)
  alpha Z        PSCENC =       274.57589780
  Ewald energy   TEWEN  =     -8733.92648156
  -Hartree energ DENC   =     -3540.46440857
  -exchange      EXHF   =         0.00000000
  -V(xc)+E(xc)   XCENC  =        35.98704882
  PAW double counting   =     11933.65310442   -11520.43608535
  entropy T*S    EENTRO =        -0.00000000
  eigenvalues    EBANDS =     -1165.57377547
  atomic energy  EATOM  =     12659.59018207
  Solvation  Ediel_sol  =         0.00000000
  free energy    TOTEN  =       -56.59451783 eV

  energy without entropy =      -56.59451783  energy(sigma->0) =      -56.59451783

 average (electrostatic) potential at core
  the test charge radii are     1.1875  1.1541  1.1312
  (the norm of the test charge is              1.0000)
       1 -93.2416       2 -93.2416       3 -93.2416       4 -93.2416       5 -93.2416
       6 -93.2416       7 -93.2416       8 -93.2416       9 -93.2283      10 -93.2283
      11 -93.2283      12 -93.2283      13 -95.4123      14 -95.4123      15 -95.4123
      16 -95.4123      17 -48.8051      18 -48.8051      19 -48.8051      20 -48.8051

 E-fermi :   2.4199     XC(G=0):  -7.5284     alpha+bet : -7.7161

 k-point     1 :       0.0000    0.0000    0.0000
  band No.  band energies     occupation
      1     -19.0589      2.00000
      2     -19.0584      2.00000
      3     -19.0574      2.00000
      4     -19.0570      2.00000
      5     -14.8729      2.00000
      6     -14.8716      2.00000
      7     -14.8714      2.00000
      8     -14.8672      2.00000
      9     -14.8626      2.00000
     10     -14.8569      2.00000
     11     -14.8553      2.00000
     12     -14.8553      2.00000
     13     -14.8319      2.00000
     14     -14.8316      2.00000
     15     -14.8313      2.00000
     16     -14.8310      2.00000
     17     -14.8266      2.00000
     18     -14.8263      2.00000
     19     -14.8261      2.00000
     20     -14.8258      2.00000
     21     -14.8226      2.00000
     22     -14.8224      2.00000
     23     -14.8218      2.00000
     24     -14.8216      2.00000
     25     -10.3354      2.00000
     26     -10.1629      2.00000
     27      -9.9135      2.00000
     28      -9.8799      2.00000
     29      -9.8757      2.00000
     30      -9.8654      2.00000
     31      -9.8576      2.00000
     32      -9.8453      2.00000
     33      -9.8451      2.00000
     34      -9.6784      2.00000
     35      -9.6727      2.00000
     36      -9.6687      2.00000
     37      -6.5500      2.00000
     38      -6.1046      2.00000
     39      -5.9260      2.00000
     40      -5.9215      2.00000
     41      -5.9166      2.00000
     42      -5.9123      2.00000
     43      -5.9071      2.00000
     44      -5.9045      2.00000
     45      -5.9030      2.00000
     46      -5.8936      2.00000
     47      -5.8833      2.00000
     48      -5.8795      2.00000
     49      -5.8634      2.00000
     50      -5.8592      2.00000
     51      -5.6057      2.00000
     52      -5.1658      2.00000
     53      -1.5655      2.00000
     54      -1.5596      2.00000
     55      -1.4741      2.00000
     56      -1.4349      2.00000
     57      -1.3226      2.00000
     58      -1.2792      2.00000
     59      -0.4721      2.00000
     60      -0.2287      2.00000
[...]
    106       6.7839      0.00000
    107       6.8212      0.00000
    108       7.0500      0.00000
    109       7.0572      0.00000
    110       7.1145      0.00000
    111       7.2574      0.00000
    112       7.2935      0.00000
    113       7.4319      0.00000
    114       7.4959      0.00000
    115       7.5626      0.00000
    116       7.6347      0.00000
    117       7.8291      0.00000
    118       7.8554      0.00000
    119       7.8795      0.00000
    120       8.0752      0.00000

[...]

 k-point   100 :       0.5000    0.5000    0.5000
  band No.  band energies     occupation
      1     -19.0579      2.00000
      2     -19.0579      2.00000
      3     -19.0579      2.00000
      4     -19.0579      2.00000
      5     -14.8689      2.00000
      6     -14.8689      2.00000
      7     -14.8689      2.00000
      8     -14.8689      2.00000
      9     -14.8594      2.00000
     10     -14.8594      2.00000
     11     -14.8594      2.00000
     12     -14.8594      2.00000
     13     -14.8315      2.00000
     14     -14.8315      2.00000
     15     -14.8315      2.00000
     16     -14.8315      2.00000
     17     -14.8262      2.00000
     18     -14.8262      2.00000
     19     -14.8262      2.00000
     20     -14.8262      2.00000
     21     -14.8221      2.00000
     22     -14.8221      2.00000
     23     -14.8221      2.00000
     24     -14.8221      2.00000
     25     -10.0759      2.00000
     26     -10.0759      2.00000
     27     -10.0759      2.00000
     28     -10.0759      2.00000
     29      -9.8828      2.00000
     30      -9.8828      2.00000
     31      -9.8828      2.00000
     32      -9.8828      2.00000
     33      -9.7128      2.00000
     34      -9.7128      2.00000
     35      -9.7128      2.00000
     36      -9.7128      2.00000
     37      -5.9773      2.00000
     38      -5.9773      2.00000
     39      -5.9773      2.00000
     40      -5.9773      2.00000
     41      -5.9082      2.00000
     42      -5.9082      2.00000
     43      -5.9082      2.00000
     44      -5.9082      2.00000
     45      -5.8725      2.00000
     46      -5.8725      2.00000
     47      -5.8725      2.00000
     48      -5.8725      2.00000
     49      -5.7865      2.00000
     50      -5.7865      2.00000
     51      -5.7864      2.00000
     52      -5.7864      2.00000
     53      -1.3385      2.00000
     54      -1.3385      2.00000
     55      -1.3385      2.00000
     56      -1.3385      2.00000
     57      -0.7474      2.00000
     58      -0.7474      2.00000
     59      -0.7474      2.00000
     60      -0.7474      2.00000
[...]
    106       7.0523      0.00000
    107       7.0523      0.00000
    108       7.0523      0.00000
    109       7.2269      0.00000
    110       7.2269      0.00000
    111       7.2269      0.00000
    112       7.2269      0.00000
    113       7.5363      0.00000
    114       7.5363      0.00000
    115       7.5363      0.00000
    116       7.5363      0.00000
    117       7.8928      0.00000
    118       7.8928      0.00000
    119       7.8928      0.00000
    120       7.8928      0.00000

 soft charge-density along one line, spin component           1
         0         1         2         3         4         5         6         7         8         9
 total charge-density along one line

------------------------ aborting loop because EDIFF is reached ----------------------------------------

  FORCE on cell =-STRESS in cart. coord.  units (eV):
  Direction    XX          YY          ZZ          XY          YZ          ZX
  Alpha Z   274.57590   274.57590   274.57590
  Ewald   -2951.30367 -2917.58973 -2865.05795    -0.00001     0.00001     0.00000
  Hartree  1155.93668  1177.59999  1206.92454     0.00000    -0.00000    -0.00000
  E(xc)    -729.22387  -729.16447  -729.13520    -0.00000     0.00000     0.00000
  Local   -1684.08904 -1741.04692 -1821.11137     0.00001    -0.00000     0.00000
  n-local  1991.29057  1991.90843  1991.40225    -1.33914     0.02324    -0.00911
  augment    -3.30441    -3.83692    -3.48407    -0.00000    -0.00000     0.00000
  Kinetic  1950.02805  1953.08126  1949.70179    -1.49812    -0.01132    -0.02765
  Fock        0.00000     0.00000     0.00000     0.00000     0.00000     0.00000
  Total       3.91021     5.52754     3.81590     0.00000     0.00000     0.00000
  in kB       6.53379     9.23627     6.37619     0.00000     0.00000     0.00000

 VOLUME and BASIS-vectors are now :
  energy-cutoff  :      520.00
  volume of cell :      958.84
      direct lattice vectors                 reciprocal lattice vectors
     8.675100327  0.000000000  0.000000000     0.115272442  0.000000000  0.000000000
     0.000000000  8.824000359  0.000000000     0.000000000  0.113327285  0.000000000
     0.000000000  0.000000000 12.525799751     0.000000000  0.000000000  0.079835222

  length of vectors
     8.675100327  8.824000359 12.525799751     0.115272442  0.113327285  0.079835222

 FORCES acting on ions
    electron-ion (+dipol)            ewald-force                    non-local-force                 convergence-correction
   0.239E+02 -.190E+02 -.172E+02   -.244E+02 0.195E+02 0.175E+02   0.528E+00 -.462E+00 -.363E+00   -.853E-05 -.362E-04 -.283E-04
   -.239E+02 0.190E+02 0.172E+02   0.244E+02 -.195E+02 -.175E+02   -.528E+00 0.462E+00 0.363E+00   0.692E-05 0.350E-04 0.266E-04
   0.239E+02 0.190E+02 0.172E+02   -.244E+02 -.195E+02 -.175E+02   0.528E+00 0.462E+00 0.363E+00   -.738E-05 0.361E-04 0.268E-04
   -.239E+02 -.190E+02 -.172E+02   0.244E+02 0.195E+02 0.175E+02   -.528E+00 -.462E+00 -.363E+00   0.904E-05 -.350E-04 -.280E-04
   -.239E+02 0.190E+02 -.172E+02   0.244E+02 -.195E+02 0.175E+02   -.528E+00 0.462E+00 -.363E+00   0.691E-05 0.350E-04 -.287E-04
   0.239E+02 -.190E+02 0.172E+02   -.244E+02 0.195E+02 -.175E+02   0.528E+00 -.462E+00 0.363E+00   -.852E-05 -.362E-04 0.297E-04
   -.239E+02 -.190E+02 0.172E+02   0.244E+02 0.195E+02 -.175E+02   -.528E+00 -.462E+00 0.363E+00   0.902E-05 -.350E-04 0.294E-04
   0.239E+02 0.190E+02 -.172E+02   -.244E+02 -.195E+02 0.175E+02   0.528E+00 0.462E+00 -.363E+00   -.737E-05 0.361E-04 -.288E-04
   0.347E+02 -.120E+02 -.105E-03   -.354E+02 0.124E+02 -.595E-04   0.677E+00 -.386E+00 0.407E-18   -.164E-03 0.582E-04 0.367E-05
   -.347E+02 0.120E+02 0.238E-05   0.354E+02 -.124E+02 0.101E-04   -.677E+00 0.386E+00 -.407E-18   0.161E-03 -.560E-04 -.329E-05
   0.347E+02 0.120E+02 0.228E-05   -.354E+02 -.124E+02 0.101E-04   0.677E+00 0.386E+00 0.434E-18   -.161E-03 -.578E-04 -.329E-05
   -.347E+02 -.120E+02 -.105E-03   0.354E+02 0.124E+02 -.595E-04   -.677E+00 -.386E+00 -.434E-18   0.164E-03 0.566E-04 0.367E-05
   -.226E-05 -.196E-04 0.731E-05   -.946E-05 -.823E-04 0.310E-04   0.000E+00 0.000E+00 0.000E+00   -.261E-05 0.282E-05 -.146E-05
   -.185E-04 -.535E-05 0.104E-04   -.780E-04 -.228E-04 0.438E-04   0.000E+00 0.000E+00 0.000E+00   0.372E-05 -.114E-05 -.196E-05
   -.380E-07 -.188E-04 0.329E-05   -.251E-06 -.790E-04 0.141E-04   0.000E+00 0.000E+00 0.000E+00   -.283E-05 0.272E-05 0.625E-06
   -.208E-04 -.464E-05 0.243E-06   -.872E-04 -.195E-04 0.123E-05   0.000E+00 0.000E+00 0.000E+00   0.394E-05 -.124E-05 0.112E-05
   -.937E+01 -.266E+02 0.325E-05   0.945E+01 0.266E+02 0.141E-04   -.736E-01 0.508E-01 0.542E-19   0.202E-03 0.523E-04 -.418E-05
   0.937E+01 0.266E+02 -.139E-03   -.945E+01 -.266E+02 -.367E-04   0.736E-01 -.508E-01 -.542E-19   -.206E-03 -.546E-04 0.463E-05
   -.937E+01 0.266E+02 -.139E-03   0.945E+01 -.266E+02 -.367E-04   -.736E-01 -.508E-01 0.542E-19   0.206E-03 -.532E-04 0.463E-05
   0.937E+01 -.266E+02 0.330E-05   -.945E+01 0.266E+02 0.141E-04   0.736E-01 0.508E-01 -.542E-19   -.203E-03 0.541E-04 -.418E-05
   0.128E-03 -.195E-03 -.548E-03   0.178E-14 0.284E-13 -.185E-13   0.111E-15 -.486E-16 0.000E+00   0.186E-05 0.242E-05 -.129E-05

 POSITION                                       TOTAL-FORCE (eV/Angst)
      1.66797      2.69903      6.76746         0.000523      0.000236      0.000798
      7.00713      6.12497      5.75834        -0.000523     -0.000236     -0.000798
      6.00552      1.71297      5.75834         0.000523     -0.000236     -0.000798
      2.66958      7.11103      6.76746        -0.000523      0.000236      0.000798
      7.00713      6.12497      0.50456        -0.000523     -0.000236      0.000798
      1.66797      2.69903     12.02124         0.000523      0.000236     -0.000798
      2.66958      7.11103     12.02124        -0.000523      0.000236     -0.000798
      6.00552      1.71297      0.50456         0.000523     -0.000236      0.000798
      7.96010      0.00066      9.39435        -0.000708      0.000077     -0.000000
      0.71500      8.82334      3.13145         0.000708     -0.000077      0.000000
      3.62255      4.41134      3.13145        -0.000708     -0.000077      0.000000
      5.05255      4.41266      9.39435         0.000708      0.000077     -0.000000
      0.00000      0.00000      6.26290         0.000000      0.000000     -0.000000
      4.33755      4.41200      6.26290         0.000000      0.000000     -0.000000
      0.00000      0.00000      0.00000         0.000000      0.000000     -0.000000
      4.33755      4.41200      0.00000         0.000000      0.000000     -0.000000
      8.48474      3.74480      3.13145        -0.000218     -0.000431      0.000000
      0.19036      5.07920      9.39435         0.000218      0.000431     -0.000000
      4.14719      0.66720      9.39435        -0.000218      0.000431     -0.000000
      4.52791      8.15680      3.13145         0.000218     -0.000431     -0.000000
    total drift:                                0.000130     -0.000192     -0.000549

  FREE ENERGIE OF THE ION-ELECTRON SYSTEM (eV)
  free  energy   TOTEN  =       -56.59451783 eV

  energy  without entropy=      -56.59451783  energy(sigma->0) =      -56.59451783

 reached required accuracy - stopping structural energy minimisation
 writing wavefunctions