 vasp.5.4.4.18Apr17-6-g9f103f2a35 (build Aug 19 2019 15:39:41) complex

 executed on             LinuxIFC date 2020.04.13  17:02:47

 INCAR:
 POTCAR:    PAW_PBE I 08Apr2002
 POTCAR:    PAW_PBE Pb_d 06Sep2000
 POTCAR:    PAW_PBE Cs_sv 08Apr2002

 POTCAR:    PAW_PBE I 08Apr2002
   VRHFIN =I : s2p5

   TITEL  = PAW_PBE I 08Apr2002
   POMASS =  126.904; ZVAL   =    7.000    mass and valenz
   ENMAX  =  175.647; ENMIN  =  131.735 eV

 POTCAR:    PAW_PBE Pb_d 06Sep2000
   VRHFIN =Pb:

   TITEL  = PAW_PBE Pb_d 06Sep2000
   POMASS =  207.200; ZVAL   =   14.000    mass and valenz
   ENMAX  =  237.835; ENMIN  =  178.376 eV

 POTCAR:    PAW_PBE Cs_sv 08Apr2002
   VRHFIN =Cs: 5s5p6s

   TITEL  = PAW_PBE Cs_sv 08Apr2002
   POMASS =  132.900; ZVAL   =    9.000    mass and valenz
   ENMAX  =  220.318; ENMIN  =  165.238 eV

  PAW_PBE I 08Apr2002                   :
  PAW_PBE Pb_d 06Sep2000                :
  PAW_PBE Cs_sv 08Apr2002               :

 POSCAR: CsPbI3_325K
  positions in direct lattice
  velocities in cartesian coordinates
 exchange correlation table for  LEXCH =        8
   RHO(1)=    0.500       N(1)  =     2000
   RHO(2)=  100.500       N(2)  =     4000

 ion  position               nearest neighbor table
   1  0.192  0.306  0.540-  14 3.21  13 3.21
   2  0.808  0.694  0.460-  14 3.21  13 3.21
   3  0.692  0.194  0.460-  13 3.21  14 3.21
   4  0.308  0.806  0.540-  13 3.21  14 3.21
   5  0.808  0.694  0.040-  16 3.21  15 3.21
   6  0.192  0.306  0.960-  16 3.21  15 3.21
   7  0.308  0.806  0.960-  15 3.21  16 3.21
   8  0.692  0.194  0.040-  15 3.21  16 3.21
   9  0.918  0.000  0.750-  15 3.21  13 3.21
  10  0.082  1.000  0.250-  13 3.21  15 3.21
  11  0.418  0.500  0.250-  14 3.21  16 3.21
  12  0.582  0.500  0.750-  16 3.21  14 3.21
  13  0.000  0.000  0.500-   3 3.21   4 3.21  10 3.21   9 3.21   1 3.21   2 3.21
  14  0.500  0.500  0.500-   2 3.21   1 3.21  11 3.21  12 3.21   3 3.21   4 3.21
  15  0.000  0.000  0.000-   8 3.21   7 3.21   9 3.21  10 3.21   6 3.21   5 3.21
  16  0.500  0.500  0.000-   5 3.21   6 3.21  12 3.21  11 3.21   8 3.21   7 3.21
  17  0.978  0.424  0.250-
  18  0.022  0.576  0.750-
  19  0.478  0.076  0.750-
  20  0.522  0.924  0.250-

  LATTYP: Found a simple orthorhombic cell.
 ALAT       =     8.6751003265
 B/A-ratio  =     1.0171640703
 C/A-ratio  =     1.4438795264

  Lattice vectors:

 A1 = (   8.6751003265,   0.0000000000,   0.0000000000)
 A2 = (   0.0000000000,   8.8240003586,   0.0000000000)
 A3 = (   0.0000000000,   0.0000000000,  12.5257997513)

Analysis of symmetry for initial positions (statically):
 Subroutine PRICEL returns:
 Original cell was already a primitive cell.

 Routine SETGRP: Setting up the symmetry group for a
 simple orthorhombic supercell.

 Subroutine GETGRP returns: Found  8 space group operations
 (whereof  2 operations were pure point group operations)
 out of a pool of  8 trial point group operations.

The static configuration has the point symmetry S_2 .
 The point group associated with its full space group is D_2h.

Analysis of symmetry for dynamics (positions and initial velocities):
 Subroutine PRICEL returns:
 Original cell was already a primitive cell.

[...]

The dynamic configuration has the point symmetry S_2 .
 The point group associated with its full space group is D_2h.

Analysis of structural, dynamic, and magnetic symmetry:
 Subroutine PRICEL returns:
 Original cell was already a primitive cell.

 Routine SETGRP: Setting up the symmetry group for a
 simple orthorhombic supercell.

 Subroutine GETGRP returns: Found  2 space group operations
 (whereof  2 operations were pure point group operations)
 out of a pool of  8 trial point group operations.

The (compounded) configuration has the point symmetry S_2 .

 Subroutine INISYM returns: Found  2 space group operations
 (whereof  2 operations are pure point group operations),
 and found     1 'primitive' translations

 KPOINTS: K-Mesh Generated with KP-Resolved Value

Automatic generation of k-mesh.
Space group operators:
 irot       det(A)        alpha          n_x          n_y          n_z        tau_x        tau_y        tau_z
    1     1.000000     0.000000     1.000000     0.000000     0.000000     0.000000     0.000000     0.000000
    2    -1.000000     0.000000     1.000000     0.000000     0.000000     0.000000     0.000000     0.000000

 Subroutine IBZKPT returns following result:

 Found      4 irreducible k-points:

 Following reciprocal coordinates:
            Coordinates               Weight
  0.000000  0.000000  0.000000      1.000000
  0.500000  0.000000  0.000000      1.000000
  0.000000  0.500000  0.000000      1.000000
  0.500000  0.500000  0.000000      1.000000

 Following cartesian coordinates:
            Coordinates               Weight
  0.000000  0.000000  0.000000      1.000000
  0.057636  0.000000  0.000000      1.000000
  0.000000  0.056664  0.000000      1.000000
  0.057636  0.056664  0.000000      1.000000

 TETIRR: Found     12 inequivalent tetrahedra from       24

 Subroutine IBZKPT_HF returns following result:

 Found      4 k-points in 1st BZ
 the following      4 k-points will be used (e.g. in the exchange kernel)
 Following reciprocal coordinates:   # in IRBZ
  0.000000  0.000000  0.000000    0.25000000   1 t-inv F
  0.500000  0.000000  0.000000    0.25000000   2 t-inv F
  0.000000  0.500000  0.000000    0.25000000   3 t-inv F
  0.500000  0.500000  0.000000    0.25000000   4 t-inv F

 SYSTEM =  unknown system
 POSCAR =  CsPbI3_325K

 Startparameter for this run:
   NWRITE =      2    write-flag & timer
   PREC   = normal    normal or accurate (medium, high low for compatibility)
   ISTART =      1    job   : 0-new  1-cont  2-samecut
   ICHARG =     11    charge: 1-file 2-atom 10-const
   ISPIN  =      1    spin polarized calculation?
   LNONCOLLINEAR =      T non collinear calculations
   LSORBIT =      T    spin-orbit coupling
   INIWAV =      1    electr: 0-lowe 1-rand  2-diag
   LASPH  =      F    aspherical Exc in radial PAW
   METAGGA=      F    non-selfconsistent MetaGGA calc.

 Electronic Relaxation 1
   ENCUT  =  520.0 eV  33.07 Ry    5.75 a.u.  15.01 15.26 21.67*2*pi/ulx,y,z
   ENINI  =  520.0     initial cutoff
   ENAUG  =  407.9 eV  augmentation charge cutoff
   NELM   =     60;   NELMIN=  2; NELMDL=  0     # of ELM steps
   EDIFF  = 0.1E-04   stopping-criterion for ELM
   LREAL  =      F    real-space projection
   NLSPLINE    = F    spline interpolate recip. space projectors
   LCOMPAT=      F    compatible to vasp.4.4
   GGA_COMPAT  = F    GGA compatible to vasp.4.4-vasp.4.6
   LMAXPAW     = -100 max onsite density
   LMAXMIX     =    4 max onsite mixed and CHGCAR
   VOSKOWN=      1    Vosko Wilk Nusair interpolation
   ROPT   =    0.00000   0.00000   0.00000
 Ionic relaxation
   EDIFFG = 0.1E-03   stopping-criterion for IOM
   NSW    =      0    number of steps for IOM
   NBLOCK =      1;   KBLOCK =      1    inner block; outer block
   IBRION =     -1    ionic relax: 0-MD 1-quasi-New 2-CG
   NFREE  =      0    steps in history (QN), initial steepest desc. (CG)
   ISIF   =      0    stress and relaxation
   IWAVPR =     10    prediction:  0-non 1-charg 2-wave 3-comb
   ISYM   =      3    0-nonsym 1-usesym 2-fastsym
   LCORR  =      T    Harris-Foulkes like correction to forces

   POTIM  = 0.1000    time-step for ionic-motion
   TEIN   =    0.0    initial temperature
   TEBEG  =    0.0;   TEEND  =   0.0 temperature during run
   SMASS  =  -3.00    Nose mass-parameter (am)
   estimated Nose-frequenzy (Omega)   =  0.10E-29 period in steps =****** mass=  -0.172E-26a.u.
   SCALEE = 1.0000    scale energy and forces
   NPACO  =    256;   APACO  = 16.0  distance and # of slots for P.C.
   PSTRESS=    0.0 pullay stress

  Mass of Ions in am
   POMASS = 126.90207.20132.90
  Ionic Valenz
   ZVAL   =   7.00 14.00  9.00
  Atomic Wigner-Seitz radii
  virtual crystal weights
   VCA    =   1.00  1.00  1.00
   NELECT =     176.0000    total number of electrons
   NUPDOWN=      -1.0000    fix difference up-down

 DOS related values:
   EMIN   =  10.00;   EMAX   =-10.00  energy-range for DOS
   EFERMI =   0.00
   ISMEAR =    -5;   SIGMA  =   0.20  broadening in eV -4-tet -1-fermi 0-gaus

 Electronic relaxation 2 (details)
   IALGO  =     58    algorithm
   LDIAG  =      T    sub-space diagonalisation (order eigenvalues)
   LSUBROT=      F    optimize rotation matrix (better conditioning)
   TURBO    =      0    0=normal 1=particle mesh
   IRESTART =      0    0=no restart 2=restart with 2 vectors
   NREBOOT  =      0    no. of reboots
   NMIN     =      0    reboot dimension
   EREF     =   0.00    reference energy to select bands
   IMIX   =      4    mixing-type and parameters
     AMIX     =   0.40;   BMIX     =  1.00
     AMIX_MAG =   1.60;   BMIX_MAG =  1.00
     AMIN     =   0.10
     WC   =   100.;   INIMIX=   1;  MIXPRE=   1;  MAXMIX= -45

 Intra band minimization:
   WEIMIN = 0.0000     energy-eigenvalue tresh-hold
   EBREAK =  0.10E-07  absolut break condition
   DEPER  =   0.30     relativ break condition

   TIME   =   0.40     timestep for ELM

  volume/ion in A,a.u.               =      47.94       323.53
  Fermi-wavevector in a.u.,A,eV,Ry     =   0.930388  1.758178 11.777489  0.865621
  Thomas-Fermi vector in A             =   2.056771

 Write flags
   LWAVE        =      T    write WAVECAR
   LDOWNSAMPLE  =      F    k-point downsampling of WAVECAR
   LCHARG       =      T    write CHGCAR
   LVTOT        =      F    write LOCPOT, total local potential
   LVHAR        =      F    write LOCPOT, Hartree potential only
   LELF         =      F    write electronic localiz. function (ELF)
   LORBIT       =     10    0 simple, 1 ext, 2 COOP (PROOUT), +10 PAW based schemes

 Dipole corrections
   LMONO  =      F    monopole corrections only (constant potential shift)
   LDIPOL =      F    correct potential (dipole corrections)
   IDIPOL =      0    1-x, 2-y, 3-z, 4-all directions
   EPSILON=  1.0000000 bulk dielectric constant

 Exchange correlation treatment:
   GGA     =    --    GGA type
   VOSKOWN=      1    Vosko Wilk Nusair interpolation
   EXXOEP  =     0    0=HF, 1=EXX-LHF (local Hartree Fock) 2=EXX OEP
   LHFCALC =     T    Hartree Fock is set to
   LSYMGRAD=     F    symmetrize gradient (conserves proper symmetry)
   PRECFOCK=normal    Normal, Fast or Accurate (Low or Medium for compatibility)
   LRHFCALC=     F    long range Hartree Fock
   LRSCOR  =     F    long range correlation only (use DFT for short range part)
   LTHOMAS =     F    Thomas Fermi screening in HF
   LMODELHF=     F    short range full HF, long range fraction AEXX
   ENCUT4O =  -1.0   cutoff for four orbital integrals eV
   LMAXFOCK=     4    L truncation for augmentation on plane wave grid
   LMAXFOCKAE=  -1    L truncation for all-electron charge restoration on plane wave grid
   NMAXFOCKAE=   1    number of basis functions for all-electron charge restoration
   LFOCKAEDFT=     F  apply the AE augmentation even for DFT
   NKREDX  =     1    reduce k-point grid by
   NKREDY  =     1    reduce k-point grid by
   NKREDZ  =     1    reduce k-point grid by
   SHIFTRED=     F    shift reduced grid of Gamma
[...]
       1 -89.6168       2 -89.6168       3 -89.6168       4 -89.6168       5 -89.6168
       6 -89.6168       7 -89.6168       8 -89.6168       9 -89.4378      10 -89.4378
      11 -89.4378      12 -89.4378      13 -89.7024      14 -89.7025      15 -89.7024
      16 -89.7025      17 -45.5604      18 -45.5604      19 -45.5605      20 -45.5604

 E-fermi :   1.3575     XC(G=0):  -6.3172     alpha+bet : -7.7161

 k-point     1 :       0.0000    0.0000    0.0000
  band No.  band energies     occupation
      1     -21.2056      1.00000
      2     -21.2056      1.00000
      3     -21.2050      1.00000
      4     -21.2050      1.00000
      5     -21.2038      1.00000
      6     -21.2038      1.00000
      7     -21.2033      1.00000
      8     -21.2033      1.00000
      9     -18.5921      1.00000
     10     -18.5921      1.00000
     11     -18.5913      1.00000
     12     -18.5913      1.00000
     13     -18.5905      1.00000
     14     -18.5905      1.00000
     15     -18.5897      1.00000
     16     -18.5897      1.00000
     17     -18.5763      1.00000
     18     -18.5763      1.00000
     19     -18.5762      1.00000
     20     -18.5762      1.00000
     21     -18.5733      1.00000
     22     -18.5733      1.00000
     23     -18.5732      1.00000
     24     -18.5732      1.00000
     25     -15.9271      1.00000
     26     -15.9271      1.00000
     27     -15.9222      1.00000
     28     -15.9222      1.00000
     29     -15.9180      1.00000
     30     -15.9180      1.00000
     31     -15.9136      1.00000
     32     -15.9136      1.00000
     33     -15.9119      1.00000
     34     -15.9119      1.00000
     35     -15.9110      1.00000
     36     -15.9109      1.00000
     37     -15.8968      1.00000
     38     -15.8968      1.00000
     39     -15.8966      1.00000
     40     -15.8966      1.00000
     41     -15.8741      1.00000
     42     -15.8741      1.00000
     43     -15.8736      1.00000
     44     -15.8736      1.00000
     45     -15.8732      1.00000
     46     -15.8732      1.00000
     47     -15.8728      1.00000
     48     -15.8728      1.00000
     49     -11.9881      1.00000
     50     -11.9880      1.00000
     51     -11.8273      1.00000
     52     -11.8272      1.00000
     53     -11.5166      1.00000
     54     -11.5165      1.00000
     55     -11.5060      1.00000
     56     -11.5059      1.00000
     57     -11.4984      1.00000
     58     -11.4983      1.00000
     59     -11.4810      1.00000
     60     -11.4809      1.00000
[...]
    226       7.8663      0.00000
    227       7.8668      0.00000
    228       7.8702      0.00000
    229       8.0326      0.00000
    230       8.1099      0.00000
    231       8.1591      0.00000
    232       8.1609      0.00000
    233       8.1758      0.00000
    234       8.2236      0.00000
    235       8.2281      0.00000
    236       8.2761      0.00000
    237       8.4036      0.00000
    238       8.4050      0.00000
    239       8.4647      0.00000
    240       8.6703      0.00000

[...]

 k-point     4 :       0.5000    0.5000    0.0000
  band No.  band energies     occupation
      1     -21.2047      1.00000
      2     -21.2047      1.00000
      3     -21.2047      1.00000
      4     -21.2046      1.00000
      5     -21.2041      1.00000
      6     -21.2041      1.00000
      7     -21.2041      1.00000
      8     -21.2041      1.00000
      9     -18.5918      1.00000
     10     -18.5918      1.00000
     11     -18.5918      1.00000
     12     -18.5918      1.00000
     13     -18.5901      1.00000
     14     -18.5901      1.00000
     15     -18.5901      1.00000
     16     -18.5901      1.00000
     17     -18.5750      1.00000
     18     -18.5750      1.00000
     19     -18.5750      1.00000
     20     -18.5750      1.00000
     21     -18.5744      1.00000
     22     -18.5744      1.00000
     23     -18.5744      1.00000
     24     -18.5744      1.00000
     25     -15.9255      1.00000
     26     -15.9255      1.00000
     27     -15.9255      1.00000
     28     -15.9255      1.00000
     29     -15.9169      1.00000
     30     -15.9169      1.00000
     31     -15.9169      1.00000
     32     -15.9169      1.00000
     33     -15.9039      1.00000
     34     -15.9039      1.00000
     35     -15.9039      1.00000
     36     -15.9039      1.00000
     37     -15.9023      1.00000
     38     -15.9023      1.00000
     39     -15.9023      1.00000
     40     -15.9023      1.00000
     41     -15.8738      1.00000
     42     -15.8738      1.00000
     43     -15.8738      1.00000
     44     -15.8738      1.00000
     45     -15.8732      1.00000
     46     -15.8732      1.00000
     47     -15.8732      1.00000
     48     -15.8732      1.00000
     49     -11.7663      1.00000
     50     -11.7663      1.00000
     51     -11.7662      1.00000
     52     -11.7662      1.00000
     53     -11.5447      1.00000
     54     -11.5447      1.00000
     55     -11.5447      1.00000
     56     -11.5447      1.00000
     57     -11.5299      1.00000
     58     -11.5298      1.00000
     59     -11.5298      1.00000
     60     -11.5298      1.00000
[...]
    226       7.7459      0.00000
    227       7.7460      0.00000
    228       7.7587      0.00000
    229       8.2294      0.00000
    230       8.2297      0.00000
    231       8.2850      0.00000
    232       8.2853      0.00000
    233       8.2907      0.00000
    234       8.3051      0.00000
    235       8.3354      0.00000
    236       8.4338      0.00000
    237       8.4377      0.00000
    238       8.4451      0.00000
    239       8.6499      0.00000
    240       8.6796      0.00000

 soft charge-density along one line, spin component           1
         0         1         2         3         4         5         6         7         8         9
 total charge-density along one line

[...]

 soft charge-density along one line, spin component           4
         0         1         2         3         4         5         6         7         8         9
 total charge-density along one line

------------------------ aborting loop because EDIFF is reached ----------------------------------------

 total charge

# of ion       s       p       d       tot
    1        1.503   2.885   0.006   4.394
    2        1.503   2.885   0.006   4.394
    3        1.503   2.885   0.006   4.394
    4        1.503   2.885   0.006   4.394
    5        1.503   2.885   0.006   4.394
    6        1.503   2.885   0.006   4.394
    7        1.503   2.885   0.006   4.394
    8        1.503   2.885   0.006   4.394
    9        1.499   2.907   0.005   4.411
   10        1.499   2.907   0.005   4.411
   11        1.499   2.907   0.005   4.411
   12        1.499   2.907   0.005   4.411
   13        1.530   0.442   9.847  11.819
   14        1.530   0.442   9.847  11.819
   15        1.530   0.442   9.847  11.819
   16        1.530   0.442   9.847  11.819
   17        2.293   4.722   0.020   7.034
   18        2.293   4.722   0.020   7.034
   19        2.293   4.722   0.020   7.034
   20        2.293   4.722   0.020   7.034
tot         33.310  55.359  39.539 128.207

 magnetization (x)

[...]

 magnetization (y)

[...]

 magnetization (z)

[...]

 VOLUME and BASIS-vectors are now :
  energy-cutoff  :      450.00
  volume of cell :      958.84
      direct lattice vectors                 reciprocal lattice vectors
     8.675100327  0.000000000  0.000000000     0.115272442  0.000000000  0.000000000
     0.000000000  8.824000359  0.000000000     0.000000000  0.113327285  0.000000000
     0.000000000  0.000000000 12.525799751     0.000000000  0.000000000  0.079835222

  length of vectors
     8.675100327  8.824000359 12.525799751     0.115272442  0.113327285  0.079835222

 FORCES acting on ions
    electron-ion (+dipol)            ewald-force                    non-local-force                 convergence-correction
   0.238E+02 -.190E+02 -.171E+02   -.244E+02 0.195E+02 0.175E+02   0.551E+00 -.460E+00 -.444E+00   -.865E-03 0.128E-03 -.122E-02
   -.238E+02 0.190E+02 0.171E+02   0.244E+02 -.195E+02 -.175E+02   -.551E+00 0.460E+00 0.444E+00   0.694E-03 -.275E-03 0.116E-02
   0.238E+02 0.190E+02 0.171E+02   -.244E+02 -.195E+02 -.175E+02   0.551E+00 0.460E+00 0.444E+00   -.665E-03 -.163E-03 0.115E-02
   -.238E+02 -.190E+02 -.171E+02   0.244E+02 0.195E+02 0.175E+02   -.551E+00 -.460E+00 -.444E+00   0.830E-03 0.293E-03 -.119E-02
   -.238E+02 0.190E+02 -.171E+02   0.244E+02 -.195E+02 0.175E+02   -.551E+00 0.460E+00 -.444E+00   0.707E-03 -.267E-03 -.120E-02
   0.238E+02 -.190E+02 0.171E+02   -.244E+02 0.195E+02 -.175E+02   0.551E+00 -.460E+00 0.444E+00   -.871E-03 0.119E-03 0.120E-02
   -.238E+02 -.190E+02 0.171E+02   0.244E+02 0.195E+02 -.175E+02   -.551E+00 -.460E+00 0.444E+00   0.818E-03 0.312E-03 0.118E-02
   0.238E+02 0.190E+02 -.171E+02   -.244E+02 -.195E+02 0.175E+02   0.551E+00 0.460E+00 -.444E+00   -.661E-03 -.179E-03 -.119E-02
   0.340E+02 -.119E+02 -.637E-04   -.354E+02 0.124E+02 -.595E-04   0.116E+01 -.416E+00 0.751E-05   -.121E-02 0.761E-03 0.112E-03
   -.340E+02 0.119E+02 0.254E-04   0.354E+02 -.124E+02 0.101E-04   -.116E+01 0.416E+00 -.751E-05   0.108E-02 -.675E-03 -.411E-04
   0.340E+02 0.119E+02 0.159E-04   -.354E+02 -.124E+02 0.101E-04   0.116E+01 0.416E+00 -.958E-05   -.106E-02 -.748E-03 -.305E-04
   -.340E+02 -.119E+02 -.561E-04   0.354E+02 0.124E+02 -.595E-04   -.116E+01 -.416E+00 0.958E-05   0.117E-02 0.764E-03 0.998E-04
   -.491E-05 -.131E-03 0.536E-04   -.946E-05 -.823E-04 0.310E-04   0.000E+00 0.000E+00 0.000E+00   0.102E-04 0.224E-03 -.926E-04
   -.138E-03 -.405E-04 0.729E-04   -.780E-04 -.228E-04 0.438E-04   0.000E+00 0.000E+00 0.000E+00   0.229E-03 0.681E-04 -.124E-03
   0.129E-04 -.124E-03 0.192E-04   -.251E-06 -.790E-04 0.141E-04   0.000E+00 0.000E+00 0.000E+00   -.220E-04 0.215E-03 -.341E-04
   -.156E-03 -.309E-04 -.240E-05   -.872E-04 -.195E-04 0.123E-05   0.000E+00 0.000E+00 0.000E+00   0.256E-03 0.538E-04 0.272E-05
   -.932E+01 -.266E+02 0.195E-04   0.945E+01 0.266E+02 0.141E-04   -.111E+00 0.524E-01 0.656E-05   -.576E-04 0.856E-03 -.397E-04
   0.932E+01 0.266E+02 -.990E-04   -.945E+01 -.266E+02 -.367E-04   0.111E+00 -.524E-01 -.656E-05   -.914E-04 -.967E-03 0.156E-03
   -.932E+01 0.266E+02 -.108E-03   0.945E+01 -.266E+02 -.367E-04   -.111E+00 -.524E-01 -.596E-05   0.607E-04 -.104E-02 0.164E-03
   0.932E+01 -.266E+02 0.245E-04   -.945E+01 0.266E+02 0.141E-04   0.111E+00 0.524E-01 0.596E-05   -.190E-05 0.967E-03 -.437E-04
   -.281E-03 -.431E-03 -.565E-04   -.178E-14 0.107E-13 0.339E-13   0.000E+00 0.000E+00 0.000E+00   0.334E-03 0.449E-03 0.187E-04

 POSITION                                       TOTAL-FORCE (eV/Angst)
      1.66797      2.69903      6.76746         0.016226     -0.008155     -0.029986
      7.00713      6.12497      5.75834        -0.016226      0.008155      0.029986
      6.00552      1.71297      5.75834         0.016232      0.008153      0.029982
      2.66958      7.11103      6.76746        -0.016232     -0.008153     -0.029982
      7.00713      6.12497      0.50456        -0.016223      0.008154     -0.029986
      1.66797      2.69903     12.02124         0.016223     -0.008154      0.029986
      2.66958      7.11103     12.02124        -0.016232     -0.008151      0.029980
      6.00552      1.71297      0.50456         0.016232      0.008151     -0.029980
      7.96010      0.00066      9.39435        -0.213785     -0.007693      0.000005
      0.71500      8.82334      3.13145         0.213785      0.007693     -0.000005
      3.62255      4.41134      3.13145        -0.213785      0.007688     -0.000005
      5.05255      4.41266      9.39435         0.213785     -0.007688      0.000005
      0.00000      0.00000      6.26290         0.000000      0.000000      0.000000
      4.33755      4.41200      6.26290         0.000000      0.000000      0.000000
      0.00000      0.00000      0.00000         0.000000      0.000000      0.000000
      4.33755      4.41200      0.00000         0.000000      0.000000      0.000000
      8.48474      3.74480      3.13145         0.019673     -0.007059     -0.000009
      0.19036      5.07920      9.39435        -0.019673      0.007059      0.000009
      4.14719      0.66720      9.39435         0.019670      0.007048      0.000008
      4.52791      8.15680      3.13145        -0.019670     -0.007048     -0.000008
    total drift:                                0.000053      0.000017     -0.000038

  FREE ENERGIE OF THE ION-ELECTRON SYSTEM (eV)
  free  energy   TOTEN  =       -70.28264357 eV

  energy  without entropy=      -70.28264357  energy(sigma->0) =      -70.28264357

 writing wavefunctions

 Spin-Orbit-Coupling matrix elements

 Ion:    1  E_soc:     -0.2582051
 l=   1
     0.0000000    -0.0425264    -0.0439516
    -0.0425264     0.0000000    -0.0426329
    -0.0439516    -0.0426329     0.0000000
 l=   2
     0.0000000     0.0000021     0.0000000     0.0000022     0.0000078
     0.0000021     0.0000000     0.0000006    -0.0000015    -0.0000020
     0.0000000     0.0000006     0.0000000     0.0000011     0.0000000
     0.0000022    -0.0000015     0.0000011     0.0000000    -0.0000021
     0.0000078    -0.0000020     0.0000000    -0.0000021     0.0000000
 l=   3
     0.0000000     0.0000000     0.0000000     0.0000000     0.0000000     0.0000000     0.0000000
     0.0000000     0.0000000     0.0000000     0.0000000     0.0000000     0.0000000     0.0000000
     0.0000000     0.0000000     0.0000000     0.0000000     0.0000000     0.0000000     0.0000000
     0.0000000     0.0000000     0.0000000     0.0000000     0.0000000     0.0000000     0.0000000
     0.0000000     0.0000000     0.0000000     0.0000000     0.0000000     0.0000000     0.0000000
     0.0000000     0.0000000     0.0000000     0.0000000     0.0000000     0.0000000     0.0000000
     0.0000000     0.0000000     0.0000000     0.0000000     0.0000000     0.0000000     0.0000000

[...]

 Ion:   20  E_soc:     -0.2764872
 l=   1
     0.0000000    -0.0460294    -0.0460503
    -0.0460294     0.0000000    -0.0460231
    -0.0460503    -0.0460231     0.0000000
 l=   2
     0.0000000    -0.0000107     0.0000000    -0.0000066    -0.0000398
    -0.0000107     0.0000000    -0.0000312    -0.0000085    -0.0000108
     0.0000000    -0.0000312     0.0000000    -0.0000243     0.0000000
    -0.0000066    -0.0000085    -0.0000243     0.0000000    -0.0000089
    -0.0000398    -0.0000108     0.0000000    -0.0000089     0.0000000
 l=   3
     0.0000000     0.0000000     0.0000000     0.0000000     0.0000000     0.0000000     0.0000000
     0.0000000     0.0000000     0.0000000     0.0000000     0.0000000     0.0000000     0.0000000
     0.0000000     0.0000000     0.0000000     0.0000000     0.0000000     0.0000000     0.0000000
     0.0000000     0.0000000     0.0000000     0.0000000     0.0000000     0.0000000     0.0000000
     0.0000000     0.0000000     0.0000000     0.0000000     0.0000000     0.0000000     0.0000000
     0.0000000     0.0000000     0.0000000     0.0000000     0.0000000     0.0000000     0.0000000
     0.0000000     0.0000000     0.0000000     0.0000000     0.0000000     0.0000000     0.0000000

 total charge

[...]

 magnetization (x)

[...]

 magnetization (y)

[...]

 magnetization (z)

# of ion       s       p       d       tot
    1        0.000   0.000  -0.000   0.000
    2        0.000   0.000  -0.000   0.000
    3        0.000   0.000  -0.000   0.000
    4        0.000   0.000  -0.000   0.000
    5        0.000   0.000  -0.000   0.000
    6        0.000   0.000  -0.000   0.000
    7        0.000   0.000  -0.000   0.000
    8        0.000   0.000  -0.000   0.000
    9        0.000   0.000  -0.000   0.000
   10        0.000   0.000  -0.000   0.000
   11        0.000   0.000  -0.000   0.000
   12        0.000   0.000  -0.000   0.000
   13       -0.000  -0.000   0.000  -0.000
   14        0.000  -0.000   0.000  -0.000
   15        0.000  -0.000   0.000  -0.000
   16       -0.000  -0.000   0.000  -0.000
   17        0.000   0.000  -0.000   0.000
   18        0.000   0.000  -0.000   0.000
   19        0.000   0.000  -0.000   0.000
   20        0.000   0.000  -0.000   0.000
tot          0.000   0.000  -0.000   0.001

 BZINTS: Fermi energy:  1.357015;176.000000 electrons
         Band energy:***********;  BLOECHL correction:  0.000000
 BZINTS: Fermi energy:  1.357015;176.000000 electrons
         Band energy:***********;  BLOECHL correction:  0.000000
 BZINTS: Fermi energy:  1.357015;176.000000 electrons
         Band energy:***********;  BLOECHL correction:  0.000000
 BZINTS: Fermi energy:  1.357015;176.000000 electrons
         Band energy:***********;  BLOECHL correction:  0.000000