 vasp.5.4.4.18Apr17-6-g9f103f2a35 (build Aug 19 2019 13:15:05) complex

 executed on             LinuxIFC date 2020.04.24  22:31:17

 INCAR:
 POTCAR:    PAW_PBE Pb_d 06Sep2000
 POTCAR:    PAW_PBE I 08Apr2002
 POTCAR:    PAW_PBE Cs_sv 08Apr2002

 POTCAR:    PAW_PBE Pb_d 06Sep2000
   VRHFIN =Pb:

   TITEL  = PAW_PBE Pb_d 06Sep2000
   POMASS =  207.200; ZVAL   =   14.000    mass and valenz
   ENMAX  =  237.835; ENMIN  =  178.376 eV

 POTCAR:    PAW_PBE I 08Apr2002
   VRHFIN =I : s2p5

   TITEL  = PAW_PBE I 08Apr2002
   POMASS =  126.904; ZVAL   =    7.000    mass and valenz
   ENMAX  =  175.647; ENMIN  =  131.735 eV

 POTCAR:    PAW_PBE Cs_sv 08Apr2002
   VRHFIN =Cs: 5s5p6s

   TITEL  = PAW_PBE Cs_sv 08Apr2002
   POMASS =  132.900; ZVAL   =    9.000    mass and valenz
   ENMAX  =  220.318; ENMIN  =  165.238 eV

 Optimization of the real space projectors (new method)

 maximal supplied QI-value         = 15.12
 optimisation between [QCUT,QGAM] = [ 10.73, 21.62] = [ 32.26,130.87] Ry
 Optimized for a Real-space Cutoff    1.38 Angstroem

   l    n(q)    QCUT    max X(q) W(low)/X(q) W(high)/X(q)  e(spline)
   2      8    10.734     3.846    0.42E-03    0.65E-04    0.45E-07
   2      8    10.734     8.593    0.38E-03    0.21E-03    0.11E-06
   0      9    10.734    20.082    0.60E-04    0.15E-03    0.97E-07
   0      9    10.734     8.597    0.89E-04    0.21E-03    0.14E-06
   1      8    10.734    33.223    0.23E-03    0.26E-03    0.11E-06
   1      8    10.734    15.899    0.21E-03    0.24E-03    0.10E-06
 Optimization of the real space projectors (new method)

[...]

   l    n(q)    QCUT    max X(q) W(low)/X(q) W(high)/X(q)  e(spline)
   0      8    10.726   194.483    0.28E-03    0.91E-04    0.87E-07
   0      8    10.726   190.334    0.27E-03    0.88E-04    0.85E-07
   1      8    10.726   116.687    0.16E-03    0.48E-03    0.15E-06
   1      8    10.726    88.696    0.16E-03    0.47E-03    0.15E-06
   2      7    10.726     4.877    0.19E-03    0.30E-04    0.27E-07
 Optimization of the real space projectors (new method)

 maximal supplied QI-value         = 15.12
 optimisation between [QCUT,QGAM] = [ 10.73, 21.62] = [ 32.26,130.87] Ry
 Optimized for a Real-space Cutoff    1.55 Angstroem

   l    n(q)    QCUT    max X(q) W(low)/X(q) W(high)/X(q)  e(spline)
   0     10    10.734    25.322    0.12E-03    0.12E-04    0.48E-06
   0     10    10.734    99.187    0.12E-03    0.12E-04    0.47E-06
   1     10    10.734    11.761    0.20E-03    0.42E-03    0.27E-06
   1     10    10.734     8.275    0.21E-03    0.46E-03    0.30E-06
   2      9    10.734     3.829    0.32E-03    0.79E-04    0.33E-06
  PAW_PBE Pb_d 06Sep2000                :
  PAW_PBE I 08Apr2002                   :
  PAW_PBE Cs_sv 08Apr2002               :

 POSCAR: delta-Cesium_Lead_Iodide
  positions in direct lattice
  velocities in cartesian coordinates
 exchange correlation table for  LEXCH =        8
   RHO(1)=    0.500       N(1)  =     2000
   RHO(2)=  100.500       N(2)  =     4000

 ion  position               nearest neighbor table
   1  0.161  0.250  0.439-   9 3.10   7 3.24   7 3.24  14 3.28  14 3.28  13 3.37
   2  0.839  0.750  0.561-  10 3.10   8 3.24   8 3.24  13 3.28  13 3.28  14 3.37
   3  0.339  0.750  0.939-  11 3.10   5 3.24   5 3.24  16 3.28  16 3.28  15 3.37
   4  0.661  0.250  0.061-  12 3.10   6 3.24   6 3.24  15 3.28  15 3.28  16 3.37
   5  0.160  0.250  0.002-   3 3.24   3 3.24
   6  0.840  0.750  0.998-   4 3.24   4 3.24
   7  0.340  0.750  0.502-   1 3.24   1 3.24
   8  0.660  0.250  0.498-   2 3.24   2 3.24
   9  0.300  0.250  0.285-   1 3.10
  10  0.700  0.750  0.715-   2 3.10
  11  0.200  0.750  0.785-   3 3.10
  12  0.800  0.250  0.215-   4 3.10
  13  0.034  0.250  0.614-   2 3.28   2 3.28   1 3.37
  14  0.966  0.750  0.386-   1 3.28   1 3.28   2 3.37
  15  0.466  0.750  0.114-   4 3.28   4 3.28   3 3.37
  16  0.534  0.250  0.886-   3 3.28   3 3.28   4 3.37
  17  0.417  0.250  0.672-
  18  0.583  0.750  0.328-
  19  0.083  0.750  0.172-
  20  0.917  0.250  0.828-

  LATTYP: Found a simple orthorhombic cell.
 ALAT       =     4.7905001640
 B/A-ratio  =     2.1781024798
 C/A-ratio  =     3.7075459914

  Lattice vectors:

 A1 = (   0.0000000000,  -4.7905001640,   0.0000000000)
 A2 = ( -10.4342002869,   0.0000000000,   0.0000000000)
 A3 = (   0.0000000000,   0.0000000000, -17.7609996796)

Analysis of symmetry for initial positions (statically):
 Subroutine PRICEL returns:
 Original cell was already a primitive cell.

 Routine SETGRP: Setting up the symmetry group for a
 simple orthorhombic supercell.

 Subroutine GETGRP returns: Found  8 space group operations
 (whereof  2 operations were pure point group operations)
 out of a pool of  8 trial point group operations.

The static configuration has the point symmetry S_2 .
 The point group associated with its full space group is D_2h.

Analysis of symmetry for dynamics (positions and initial velocities):
 Subroutine PRICEL returns:
 Original cell was already a primitive cell.

 Routine SETGRP: Setting up the symmetry group for a
 simple orthorhombic supercell.

 Subroutine GETGRP returns: Found  8 space group operations
 (whereof  2 operations were pure point group operations)
 out of a pool of  8 trial point group operations.

The dynamic configuration has the point symmetry S_2 .
 The point group associated with its full space group is D_2h.

 Subroutine INISYM returns: Found  8 space group operations
 (whereof  2 operations are pure point group operations),
 and found     1 'primitive' translations

 KPOINTS: 0.100   1   2   1    2  0.100   48   12
  k-points in reciprocal lattice
Space group operators:
 irot       det(A)        alpha          n_x          n_y          n_z        tau_x        tau_y        tau_z
    1     1.000000     0.000000     1.000000     0.000000     0.000000     0.000000     0.000000     0.000000
    2    -1.000000     0.000000     1.000000     0.000000     0.000000     0.000000     0.000000     0.000000
    3     1.000000   180.000000     0.000000     0.000000     1.000000    -0.500000    -0.000000    -0.500000
    4    -1.000000   180.000000     0.000000     0.000000     1.000000    -0.500000     0.000000    -0.500000
    5     1.000000   180.000000     1.000000     0.000000     0.000000    -0.500000    -0.500000    -0.500000
    6    -1.000000   180.000000     1.000000     0.000000     0.000000    -0.500000    -0.500000    -0.500000
    7     1.000000   180.000000     0.000000     1.000000     0.000000     0.000000    -0.500000     0.000000
    8    -1.000000   180.000000     0.000000     1.000000     0.000000     0.000000    -0.500000     0.000000

 Subroutine IBZKPT_HF returns following result:

 Found     50 k-points in 1st BZ
 the following     50 k-points will be used (e.g. in the exchange kernel)
 Following reciprocal coordinates:   # in IRBZ
  0.000000  0.000000  0.000000    0.50000000   1 t-inv F
  0.000000  0.500000  0.000000    0.50000000   2 t-inv F
  0.000000  0.000000  0.000000    0.00000000   3 t-inv F
  0.250000  0.000000  0.000000    0.00000000   4 t-inv F
  0.500000  0.000000  0.000000    0.00000000   5 t-inv F
  0.500000  0.000000  0.000000    0.00000000   6 t-inv F
  0.500000  0.100000  0.000000    0.00000000   7 t-inv F
  0.500000  0.200000  0.000000    0.00000000   8 t-inv F
  0.500000  0.300000  0.000000    0.00000000   9 t-inv F
  0.500000  0.400000  0.000000    0.00000000  10 t-inv F
  0.500000  0.500000  0.000000    0.00000000  11 t-inv F
  0.500000  0.500000  0.000000    0.00000000  12 t-inv F
  0.250000  0.500000  0.000000    0.00000000  13 t-inv F
  0.000000  0.500000  0.000000    0.00000000  14 t-inv F
  0.000000  0.500000  0.000000    0.00000000  15 t-inv F
  0.000000  0.400000  0.000000    0.00000000  16 t-inv F
  0.000000  0.300000  0.000000    0.00000000  17 t-inv F
  0.000000  0.200000  0.000000    0.00000000  18 t-inv F
  0.000000  0.100000  0.000000    0.00000000  19 t-inv F
  0.000000  0.000000  0.000000    0.00000000  20 t-inv F
  0.000000  0.000000  0.000000    0.00000000  21 t-inv F
  0.000000  0.000000  0.250000    0.00000000  22 t-inv F
  0.000000  0.000000  0.500000    0.00000000  23 t-inv F
  0.000000  0.000000  0.500000    0.00000000  24 t-inv F
  0.250000  0.000000  0.500000    0.00000000  25 t-inv F
  0.500000  0.000000  0.500000    0.00000000  26 t-inv F
  0.500000  0.000000  0.500000    0.00000000  27 t-inv F
  0.500000  0.100000  0.500000    0.00000000  28 t-inv F
  0.500000  0.200000  0.500000    0.00000000  29 t-inv F
  0.500000  0.300000  0.500000    0.00000000  30 t-inv F
  0.500000  0.400000  0.500000    0.00000000  31 t-inv F
  0.500000  0.500000  0.500000    0.00000000  32 t-inv F
  0.500000  0.500000  0.500000    0.00000000  33 t-inv F
  0.250000  0.500000  0.500000    0.00000000  34 t-inv F
  0.000000  0.500000  0.500000    0.00000000  35 t-inv F
  0.000000  0.500000  0.500000    0.00000000  36 t-inv F
  0.000000  0.400000  0.500000    0.00000000  37 t-inv F
  0.000000  0.300000  0.500000    0.00000000  38 t-inv F
  0.000000  0.200000  0.500000    0.00000000  39 t-inv F
  0.000000  0.100000  0.500000    0.00000000  40 t-inv F
  0.000000  0.000000  0.500000    0.00000000  41 t-inv F
  0.500000  0.000000  0.000000    0.00000000  42 t-inv F
  0.500000  0.000000  0.250000    0.00000000  43 t-inv F
  0.500000  0.000000  0.500000    0.00000000  44 t-inv F
  0.000000  0.500000  0.000000    0.00000000  45 t-inv F
  0.000000  0.500000  0.250000    0.00000000  46 t-inv F
  0.000000  0.500000  0.500000    0.00000000  47 t-inv F
  0.500000  0.500000  0.000000    0.00000000  48 t-inv F
  0.500000  0.500000  0.250000    0.00000000  49 t-inv F
  0.500000  0.500000  0.500000    0.00000000  50 t-inv F

 SYSTEM =  unknown system
 POSCAR =  delta-Cesium_Lead_Iodide

 Startparameter for this run:
   NWRITE =      2    write-flag & timer
   PREC   = normal    normal or accurate (medium, high low for compatibility)
   ISTART =      1    job   : 0-new  1-cont  2-samecut
   ICHARG =     11    charge: 1-file 2-atom 10-const
   ISPIN  =      1    spin polarized calculation?
   LNONCOLLINEAR =      F non collinear calculations
   LSORBIT =      F    spin-orbit coupling
   INIWAV =      1    electr: 0-lowe 1-rand  2-diag
   LASPH  =      F    aspherical Exc in radial PAW
   METAGGA=      F    non-selfconsistent MetaGGA calc.

 Electronic Relaxation 1
   ENCUT  =  520.0 eV  33.07 Ry    5.75 a.u.  18.05  8.29 30.72*2*pi/ulx,y,z
   ENINI  =  520.0     initial cutoff
   ENAUG  =  407.9 eV  augmentation charge cutoff
   NELM   =     60;   NELMIN=  2; NELMDL=  0     # of ELM steps
   EDIFF  = 0.1E-04   stopping-criterion for ELM
   LREAL  =      T    real-space projection
   NLSPLINE    = F    spline interpolate recip. space projectors
   LCOMPAT=      F    compatible to vasp.4.4
   GGA_COMPAT  = T    GGA compatible to vasp.4.4-vasp.4.6
   LMAXPAW     = -100 max onsite density
   LMAXMIX     =    2 max onsite mixed and CHGCAR
   VOSKOWN=      0    Vosko Wilk Nusair interpolation
   ROPT   =   -0.00050  -0.00050  -0.00050
 Ionic relaxation
   EDIFFG = 0.1E-03   stopping-criterion for IOM
   NSW    =      0    number of steps for IOM
   NBLOCK =      1;   KBLOCK =      1    inner block; outer block
[...]

 serial   3D FFT for wavefunctions
 parallel 3D FFT for charge:
    minimum data exchange during FFTs selected (reduces bandwidth)

 Radii for the augmentation spheres in the non-local exchange
 for species   1 augmentation radius   1.443 (default was   1.154)
       energy cutoff for augmentation   1800.0
 for species   2 augmentation radius   1.484 (default was   1.188)
       energy cutoff for augmentation   1800.0
 for species   3 augmentation radius   1.414 (default was   1.131)
       energy cutoff for augmentation   1800.0
 Maximum index for augmentation-charges in exchange         2249
  SETUP_FOCK is finished

 initial charge density was supplied:
 number of electron     176.0000000 magnetization
 keeping initial charge density in first step

 Maximum index for non-local projection operator         2494
 Maximum index for augmentation-charges         2160 (set IRDMAX)

 First call to EWALD:  gamma=   0.184
 Maximum number of real-space cells 3x 5x 2
 Maximum number of reciprocal cells 3x 2x 5

--------------------------------------- Iteration      1(   1)  ---------------------------------------

 eigenvalue-minimisations  :     0
 total energy-change (2. order) : 0.1461725E+03  (-0.1655203E+03)
 number of electron     176.0000000 magnetization
 augmentation part      176.0000000 magnetization

 Free energy of the ion-electron system (eV)
  alpha Z        PSCENC =       296.55173223
  Ewald energy   TEWEN  =     -8963.34988360
  -Hartree energ DENC   =     -3439.89634090
  -exchange      EXHF   =       312.19724789
  -V(xc)+E(xc)   XCENC  =        14.04597699
  PAW double counting   =     15603.02033964   -15243.66791535
  entropy T*S    EENTRO =        -0.00000000
  eigenvalues    EBANDS =     -1075.06524950
  atomic energy  EATOM  =     12642.33662683
  free energy    TOTEN  =       146.17253423 eV

  energy without entropy =      146.17253423  energy(sigma->0) =      146.17253423
  exchange ACFDT corr.  =        -0.00000000  see jH, gK, PRB 81, 115126

[...]

 eigenvalue-minimisations  :     0
 total energy-change (2. order) :-0.1550835E+03  (-0.3718737E+02)
 number of electron     176.0000000 magnetization
 augmentation part      176.0000000 magnetization

[...]

--------------------------------------- Iteration      1(  16)  ---------------------------------------

 eigenvalue-minimisations  :     0
 total energy-change (2. order) :-0.7369690E-05  (-0.2597467E-05)
 number of electron     176.0000000 magnetization
 augmentation part      176.0000000 magnetization

 Free energy of the ion-electron system (eV)
  alpha Z        PSCENC =       296.55173223
  Ewald energy   TEWEN  =     -8963.34988360
  -Hartree energ DENC   =     -3439.89634090
  -exchange      EXHF   =       317.64483865
  -V(xc)+E(xc)   XCENC  =        14.04597699
  PAW double counting   =     15603.02033964   -15243.66791535
  entropy T*S    EENTRO =        -0.00000000
  eigenvalues    EBANDS =     -1294.45540023
  atomic energy  EATOM  =     12642.33662683
  free energy    TOTEN  =       -67.77033482 eV

  energy without entropy =      -67.77033482  energy(sigma->0) =      -67.77033482
  exchange ACFDT corr.  =        -0.00000000  see jH, gK, PRB 81, 115126

  average scaling for gradient   0.8087

 average (electrostatic) potential at core
  the test charge radii are     1.1541  1.1875  1.1312
  (the norm of the test charge is              1.0000)
       1 -89.1031       2 -89.1031       3 -89.1032       4 -89.1032       5 -89.0864
       6 -89.0865       7 -89.0865       8 -89.0864       9 -88.8375      10 -88.8376
      11 -88.8376      12 -88.8375      13 -89.2535      14 -89.2535      15 -89.2535
      16 -89.2535      17 -44.9382      18 -44.9382      19 -44.9382      20 -44.9382

 E-fermi :   1.5266     XC(G=0):  -6.6244     alpha+bet : -8.3336

 k-point     1 :       0.0000    0.0000    0.0000
  band No.  band energies     occupation
      1     -20.5958      2.00000
      2     -20.5953      2.00000
      3     -20.5937      2.00000
      4     -20.5932      2.00000
      5     -16.3809      2.00000
      6     -16.3807      2.00000
      7     -16.3728      2.00000
      8     -16.3728      2.00000
      9     -16.3714      2.00000
     10     -16.3713      2.00000
     11     -16.3681      2.00000
     12     -16.3680      2.00000
     13     -16.3463      2.00000
     14     -16.3462      2.00000
     15     -16.3445      2.00000
     16     -16.3444      2.00000
     17     -16.3313      2.00000
     18     -16.3312      2.00000
     19     -16.3281      2.00000
     20     -16.3281      2.00000
     21     -16.3157      2.00000
     22     -16.3156      2.00000
     23     -16.3102      2.00000
     24     -16.3101      2.00000
     25     -11.5693      2.00000
     26     -11.5366      2.00000
     27     -11.2150      2.00000
     28     -11.1052      2.00000
     29     -11.0599      2.00000
     30     -11.0575      2.00000
     31     -11.0411      2.00000
     32     -10.9977      2.00000
     33     -10.7552      2.00000
     34     -10.7048      2.00000
     35     -10.6997      2.00000
     36     -10.6156      2.00000
     37      -6.4944      2.00000
     38      -6.4940      2.00000
     39      -6.4882      2.00000
     40      -6.4807      2.00000
     41      -6.4493      2.00000
     42      -6.4036      2.00000
     43      -6.3825      2.00000
     44      -6.3790      2.00000
     45      -6.3647      2.00000
     46      -6.3638      2.00000
     47      -6.3618      2.00000
     48      -6.3606      2.00000
     49      -6.0982      2.00000
     50      -6.0652      2.00000
     51      -5.9985      2.00000
     52      -5.8482      2.00000
     53      -1.7452      2.00000
     54      -1.4664      2.00000
     55      -1.0280      2.00000
     56      -0.8672      2.00000
     57      -0.8452      2.00000
     58      -0.7481      2.00000
     59      -0.7257      2.00000
     60      -0.5901      2.00000
[...]
    106       7.5635      0.00000
    107       7.6104      0.00000
    108       7.8696      0.00000
    109       7.8993      0.00000
    110       7.9132      0.00000
    111       8.1743      0.00000
    112       8.4977      0.00000
    113       8.6499      0.00000
    114       8.7286      0.00000
    115       8.8067      0.00000
    116       8.9827      0.00000
    117       9.0514      0.00000
    118       9.0564      0.00000
    119       9.0850      0.00000
    120       9.1867      0.00000

[...]

 k-point    50 :       0.5000    0.5000    0.5000
  band No.  band energies     occupation
      1     -20.5797      2.00000
      2     -20.5797      2.00000
      3     -20.5796      2.00000
      4     -20.5796      2.00000
      5     -16.3981      2.00000
      6     -16.3981      2.00000
      7     -16.3981      2.00000
      8     -16.3981      2.00000
      9     -16.3643      2.00000
     10     -16.3643      2.00000
     11     -16.3642      2.00000
     12     -16.3642      2.00000
     13     -16.3324      2.00000
     14     -16.3324      2.00000
     15     -16.3323      2.00000
     16     -16.3323      2.00000
     17     -16.3286      2.00000
     18     -16.3286      2.00000
     19     -16.3286      2.00000
     20     -16.3286      2.00000
     21     -16.3155      2.00000
     22     -16.3155      2.00000
     23     -16.3155      2.00000
     24     -16.3155      2.00000
     25     -11.0914      2.00000
     26     -11.0914      2.00000
     27     -11.0914      2.00000
     28     -11.0914      2.00000
     29     -10.8428      2.00000
     30     -10.8428      2.00000
     31     -10.8428      2.00000
     32     -10.8428      2.00000
     33     -10.7372      2.00000
     34     -10.7372      2.00000
     35     -10.7371      2.00000
     36     -10.7371      2.00000
     37      -6.6324      2.00000
     38      -6.6324      2.00000
     39      -6.6324      2.00000
     40      -6.6324      2.00000
     41      -6.5188      2.00000
     42      -6.5188      2.00000
     43      -6.5188      2.00000
     44      -6.5188      2.00000
     45      -6.4285      2.00000
     46      -6.4285      2.00000
     47      -6.4284      2.00000
     48      -6.4284      2.00000
     49      -6.3571      2.00000
     50      -6.3571      2.00000
     51      -6.3571      2.00000
     52      -6.3571      2.00000
     53      -1.5945      2.00000
     54      -1.5945      2.00000
     55      -1.5945      2.00000
     56      -1.5945      2.00000
     57      -1.3545      2.00000
     58      -1.3545      2.00000
     59      -1.3545      2.00000
     60      -1.3545      2.00000
[...]
    106       8.1783      0.00000
    107       8.1783      0.00000
    108       8.1783      0.00000
    109       8.3293      0.00000
    110       8.3294      0.00000
    111       8.3310      0.00000
    112       8.3337      0.00000
    113       8.8650      0.00000
    114       8.8690      0.00000
    115       8.8783      0.00000
    116       8.9153      0.00000
    117       9.3520      0.00000
    118       9.4174      0.00000
    119       9.5117      0.00000
    120       9.5672      0.00000

 soft charge-density along one line, spin component           1
         0         1         2         3         4         5         6         7         8         9
 total charge-density along one line

------------------------ aborting loop because EDIFF is reached ----------------------------------------

 total charge

# of ion       s       p       d       tot
    1        1.527   0.445   9.842  11.814
    2        1.527   0.445   9.842  11.814
    3        1.527   0.445   9.842  11.814
    4        1.527   0.445   9.842  11.814
    5        1.506   2.872   0.007   4.385
    6        1.506   2.872   0.007   4.385
    7        1.506   2.872   0.007   4.385
    8        1.506   2.872   0.007   4.385
    9        1.501   2.908   0.005   4.414
   10        1.501   2.908   0.005   4.414
   11        1.501   2.908   0.005   4.414
   12        1.501   2.908   0.005   4.414
   13        1.507   2.865   0.009   4.381
   14        1.507   2.865   0.009   4.381
   15        1.507   2.865   0.009   4.381
   16        1.507   2.865   0.009   4.381
   17        2.290   4.722   0.024   7.036
   18        2.290   4.722   0.024   7.036
   19        2.290   4.722   0.024   7.036
   20        2.290   4.722   0.024   7.036
tot         33.323  55.246  39.550 128.120

 VOLUME and BASIS-vectors are now :
  energy-cutoff  :      450.00
  volume of cell :      887.78
      direct lattice vectors                 reciprocal lattice vectors
    10.434200287  0.000000000  0.000000000     0.095838682  0.000000000  0.000000000
     0.000000000  4.790500164  0.000000000     0.000000000  0.208746470  0.000000000
     0.000000000  0.000000000 17.760999680     0.000000000  0.000000000  0.056303137

  length of vectors
    10.434200287  4.790500164 17.760999680     0.095838682  0.208746470  0.056303137

 FORCES acting on ions
    electron-ion (+dipol)            ewald-force                    non-local-force                 convergence-correction
   -.630E+02 0.566E-03 0.531E+02   0.607E+02 -.183E-04 -.506E+02   0.187E+01 0.339E-20 -.214E+01   0.264E+00 -.271E-03 -.158E+00
   0.630E+02 -.284E-03 -.531E+02   -.607E+02 0.183E-04 0.506E+02   -.187E+01 -.136E-19 0.214E+01   -.266E+00 -.465E-04 0.155E+00
   0.630E+02 -.341E-03 0.531E+02   -.607E+02 0.183E-04 -.506E+02   -.187E+01 -.678E-20 -.214E+01   -.264E+00 -.653E-05 -.152E+00
   -.630E+02 0.506E-03 -.531E+02   0.607E+02 -.183E-04 0.506E+02   0.187E+01 0.339E-20 0.214E+01   0.264E+00 -.252E-03 0.158E+00
   0.923E+02 0.422E-05 -.481E+02   -.940E+02 -.117E-04 0.486E+02   0.172E+01 -.424E-20 -.543E+00   -.974E-01 0.558E-04 0.294E-01
   -.923E+02 -.456E-04 0.481E+02   0.940E+02 0.117E-04 -.486E+02   -.172E+01 0.508E-20 0.543E+00   0.977E-01 -.361E-04 -.286E-01
   -.923E+02 -.481E-04 -.481E+02   0.940E+02 0.117E-04 0.486E+02   -.172E+01 0.339E-20 -.543E+00   0.976E-01 -.368E-04 0.288E-01
   0.923E+02 0.498E-04 0.481E+02   -.940E+02 -.117E-04 -.486E+02   0.172E+01 -.339E-20 0.543E+00   -.974E-01 0.464E-04 -.292E-01
   -.397E+02 -.810E-04 0.767E+02   0.405E+02 -.489E-05 -.781E+02   -.865E+00 0.169E-20 0.150E+01   0.328E-01 0.724E-05 -.679E-01
   0.397E+02 0.429E-04 -.767E+02   -.405E+02 0.489E-05 0.781E+02   0.865E+00 -.847E-21 -.150E+01   -.328E-01 0.127E-05 0.675E-01
   0.397E+02 0.600E-04 0.767E+02   -.405E+02 0.489E-05 -.781E+02   0.865E+00 0.000E+00 0.150E+01   -.329E-01 -.111E-04 -.677E-01
   -.397E+02 -.388E-04 -.767E+02   0.405E+02 -.489E-05 0.781E+02   -.865E+00 0.169E-20 -.150E+01   0.327E-01 0.287E-05 0.677E-01
   -.651E+02 0.120E-03 -.122E+03   0.662E+02 -.969E-05 0.123E+03   -.123E+01 -.169E-20 -.143E+01   0.842E-01 -.386E-04 0.289E+00
   0.651E+02 -.168E-03 0.122E+03   -.662E+02 0.969E-05 -.123E+03   0.123E+01 0.169E-20 0.143E+01   -.844E-01 0.527E-04 -.289E+00
   0.651E+02 -.133E-03 -.122E+03   -.662E+02 0.969E-05 0.123E+03   0.123E+01 0.191E-20 -.143E+01   -.844E-01 0.673E-04 0.289E+00
   -.651E+02 0.153E-03 0.122E+03   0.662E+02 -.969E-05 -.123E+03   -.123E+01 -.212E-20 0.143E+01   0.843E-01 -.660E-04 -.289E+00
   -.193E+00 0.368E-04 -.122E+02   0.290E+00 -.548E-05 0.123E+02   -.103E+00 -.397E-22 -.110E+00   0.595E-02 0.162E-06 0.385E-01
   0.193E+00 -.717E-04 0.122E+02   -.290E+00 0.548E-05 -.123E+02   0.103E+00 0.000E+00 0.110E+00   -.578E-02 0.159E-04 -.390E-01
   0.193E+00 0.278E-04 -.122E+02   -.290E+00 0.548E-05 0.123E+02   0.103E+00 0.000E+00 -.110E+00   -.570E-02 -.309E-04 0.387E-01
   -.192E+00 0.495E-05 0.122E+02   0.290E+00 -.548E-05 -.123E+02   -.103E+00 0.000E+00 0.110E+00   0.575E-02 0.133E-04 -.386E-01
   0.209E-02 0.361E-03 -.250E-02   0.422E-14 0.171E-14 0.462E-13   0.208E-15 -.104E-19 0.139E-16   -.220E-02 -.532E-03 0.302E-02

 POSITION                                       TOTAL-FORCE (eV/Angst)
      1.67927      1.19763      7.79733         0.034161     -0.000000     -0.060755
      8.75493      3.59288      9.96367        -0.034161     -0.000000      0.060755
      3.53783      3.59288     16.67783        -0.034161     -0.000000     -0.060755
      6.89637      1.19763      1.08317         0.034161     -0.000000      0.060755
      1.66861      1.19763      0.03521         0.065467     -0.000000     -0.060333
      8.76559      3.59288     17.72579        -0.065467      0.000000      0.060333
      3.54849      3.59288      8.91571        -0.065467      0.000000     -0.060333
      6.88571      1.19763      8.84529         0.065467     -0.000000      0.060333
      3.13268      1.19763      5.06151        -0.074507      0.000000      0.097546
      7.30152      3.59288     12.69949         0.074507     -0.000000     -0.097546
      2.08442      3.59288     13.94201         0.074507     -0.000000      0.097546
      8.34978      1.19763      3.81899        -0.074507      0.000000     -0.097546
      0.35353      1.19763     10.90043        -0.077754     -0.000000     -0.189881
     10.08067      3.59288      6.86057         0.077754     -0.000000      0.189881
      4.86357      3.59288      2.01993         0.077754     -0.000000     -0.189881
      5.57063      1.19763     15.74107        -0.077754      0.000000      0.189881
      4.35243      1.19763     11.93416         0.001498      0.000000      0.006536
      6.08177      3.59288      5.82684        -0.001498     -0.000000     -0.006536
      0.86467      3.59288      3.05366        -0.001498      0.000000      0.006536
      9.56953      1.19763     14.70734         0.001498     -0.000000     -0.006536
    total drift:                               -0.000107     -0.000171      0.000514

  FREE ENERGIE OF THE ION-ELECTRON SYSTEM (eV)
  free  energy   TOTEN  =       -67.77033482 eV

  energy  without entropy=      -67.77033482  energy(sigma->0) =      -67.77033482

 total charge

# of ion       s       p       d       tot
    1        1.527   0.445   9.842  11.814
    2        1.527   0.445   9.842  11.814
    3        1.527   0.445   9.842  11.814
    4        1.527   0.445   9.842  11.814
    5        1.506   2.872   0.007   4.385
    6        1.506   2.872   0.007   4.385
    7        1.506   2.872   0.007   4.385
    8        1.506   2.872   0.007   4.385
    9        1.501   2.908   0.005   4.414
   10        1.501   2.908   0.005   4.414
   11        1.501   2.908   0.005   4.414
   12        1.501   2.908   0.005   4.414
   13        1.507   2.865   0.009   4.381
   14        1.507   2.865   0.009   4.381
   15        1.507   2.865   0.009   4.381
   16        1.507   2.865   0.009   4.381
   17        2.290   4.722   0.024   7.036
   18        2.290   4.722   0.024   7.036
   19        2.290   4.722   0.024   7.036
   20        2.290   4.722   0.024   7.036
tot         33.323  55.246  39.550 128.120