 vasp.5.4.4.18Apr17-6-g9f103f2a35 (build Aug 19 2019 13:15:05) complex

 executed on             LinuxIFC date 2020.05.13  17:04:46

 INCAR:
 POTCAR:    PAW_PBE Pb_d 06Sep2000
 POTCAR:    PAW_PBE I 08Apr2002
 POTCAR:    PAW_PBE Cs_sv 08Apr2002

 POTCAR:    PAW_PBE Pb_d 06Sep2000
   VRHFIN =Pb:

   TITEL  = PAW_PBE Pb_d 06Sep2000
   POMASS =  207.200; ZVAL   =   14.000    mass and valenz
   ENMAX  =  237.835; ENMIN  =  178.376 eV

 POTCAR:    PAW_PBE I 08Apr2002
   VRHFIN =I : s2p5

   TITEL  = PAW_PBE I 08Apr2002
   POMASS =  126.904; ZVAL   =    7.000    mass and valenz
   ENMAX  =  175.647; ENMIN  =  131.735 eV

 POTCAR:    PAW_PBE Cs_sv 08Apr2002
   VRHFIN =Cs: 5s5p6s

   TITEL  = PAW_PBE Cs_sv 08Apr2002
   POMASS =  132.900; ZVAL   =    9.000    mass and valenz
   ENMAX  =  220.318; ENMIN  =  165.238 eV

  PAW_PBE Pb_d 06Sep2000                :
  PAW_PBE I 08Apr2002                   :
  PAW_PBE Cs_sv 08Apr2002               :

 POSCAR: delta-Cesium_Lead_Iodide
  positions in direct lattice
  velocities in cartesian coordinates
 exchange correlation table for  LEXCH =        8
   RHO(1)=    0.500       N(1)  =     2000
   RHO(2)=  100.500       N(2)  =     4000

 ion  position               nearest neighbor table
   1  0.161  0.250  0.439-   9 3.10   7 3.24   7 3.24  14 3.28  14 3.28  13 3.37
   2  0.839  0.750  0.561-  10 3.10   8 3.24   8 3.24  13 3.28  13 3.28  14 3.37
   3  0.339  0.750  0.939-  11 3.10   5 3.24   5 3.24  16 3.28  16 3.28  15 3.37
   4  0.661  0.250  0.061-  12 3.10   6 3.24   6 3.24  15 3.28  15 3.28  16 3.37
   5  0.160  0.250  0.002-   3 3.24   3 3.24
   6  0.840  0.750  0.998-   4 3.24   4 3.24
   7  0.340  0.750  0.502-   1 3.24   1 3.24
   8  0.660  0.250  0.498-   2 3.24   2 3.24
   9  0.300  0.250  0.285-   1 3.10
  10  0.700  0.750  0.715-   2 3.10
  11  0.200  0.750  0.785-   3 3.10
  12  0.800  0.250  0.215-   4 3.10
  13  0.034  0.250  0.614-   2 3.28   2 3.28   1 3.37
  14  0.966  0.750  0.386-   1 3.28   1 3.28   2 3.37
  15  0.466  0.750  0.114-   4 3.28   4 3.28   3 3.37
  16  0.534  0.250  0.886-   3 3.28   3 3.28   4 3.37
  17  0.417  0.250  0.672-
  18  0.583  0.750  0.328-
  19  0.083  0.750  0.172-
  20  0.917  0.250  0.828-

  LATTYP: Found a simple orthorhombic cell.
 ALAT       =     4.7905001640
 B/A-ratio  =     2.1781024798
 C/A-ratio  =     3.7075459914

  Lattice vectors:

 A1 = (   0.0000000000,  -4.7905001640,   0.0000000000)
 A2 = ( -10.4342002869,   0.0000000000,   0.0000000000)
 A3 = (   0.0000000000,   0.0000000000, -17.7609996796)

Analysis of symmetry for initial positions (statically):
 Subroutine PRICEL returns:
 Original cell was already a primitive cell.

 Routine SETGRP: Setting up the symmetry group for a
 simple orthorhombic supercell.

 Subroutine GETGRP returns: Found  8 space group operations
 (whereof  2 operations were pure point group operations)
 out of a pool of  8 trial point group operations.

The static configuration has the point symmetry S_2 .
 The point group associated with its full space group is D_2h.

Analysis of symmetry for dynamics (positions and initial velocities):
 Subroutine PRICEL returns:
 Original cell was already a primitive cell.

 Routine SETGRP: Setting up the symmetry group for a
 simple orthorhombic supercell.

 Subroutine GETGRP returns: Found  8 space group operations
 (whereof  2 operations were pure point group operations)
 out of a pool of  8 trial point group operations.

The dynamic configuration has the point symmetry S_2 .
 The point group associated with its full space group is D_2h.

 Subroutine INISYM returns: Found  8 space group operations
 (whereof  2 operations are pure point group operations),
 and found     1 'primitive' translations

 KPOINTS: K-Mesh Generated with KP-Resolved Value

Automatic generation of k-mesh.
Space group operators:
 irot       det(A)        alpha          n_x          n_y          n_z        tau_x        tau_y        tau_z
    1     1.000000     0.000000     1.000000     0.000000     0.000000     0.000000     0.000000     0.000000
    2    -1.000000     0.000000     1.000000     0.000000     0.000000     0.000000     0.000000     0.000000
    3     1.000000   180.000000     0.000000     0.000000     1.000000    -0.500000    -0.000000    -0.500000
    4    -1.000000   180.000000     0.000000     0.000000     1.000000    -0.500000     0.000000    -0.500000
    5     1.000000   180.000000     1.000000     0.000000     0.000000    -0.500000    -0.500000    -0.500000
    6    -1.000000   180.000000     1.000000     0.000000     0.000000    -0.500000    -0.500000    -0.500000
    7     1.000000   180.000000     0.000000     1.000000     0.000000     0.000000    -0.500000     0.000000
    8    -1.000000   180.000000     0.000000     1.000000     0.000000     0.000000    -0.500000     0.000000

 Subroutine IBZKPT returns following result:

 Found     56 irreducible k-points:

 Following reciprocal coordinates:
            Coordinates               Weight
  0.000000  0.000000  0.000000      1.000000
  0.166667  0.000000  0.000000      2.000000
  0.333333  0.000000  0.000000      2.000000
  0.500000  0.000000  0.000000      1.000000
  0.000000  0.083333  0.000000      2.000000
  0.166667  0.083333  0.000000      4.000000
  0.333333  0.083333  0.000000      4.000000
  0.500000  0.083333  0.000000      2.000000
  0.000000  0.166667  0.000000      2.000000
  0.166667  0.166667  0.000000      4.000000
  0.333333  0.166667  0.000000      4.000000
  0.500000  0.166667  0.000000      2.000000
  0.000000  0.250000  0.000000      2.000000
  0.166667  0.250000  0.000000      4.000000
  0.333333  0.250000  0.000000      4.000000
  0.500000  0.250000  0.000000      2.000000
  0.000000  0.333333  0.000000      2.000000
  0.166667  0.333333  0.000000      4.000000
  0.333333  0.333333  0.000000      4.000000
  0.500000  0.333333  0.000000      2.000000
  0.000000  0.416667  0.000000      2.000000
  0.166667  0.416667  0.000000      4.000000
  0.333333  0.416667  0.000000      4.000000
  0.500000  0.416667  0.000000      2.000000
  0.000000  0.500000  0.000000      1.000000
  0.166667  0.500000  0.000000      2.000000
  0.333333  0.500000  0.000000      2.000000
  0.500000  0.500000  0.000000      1.000000
  0.000000  0.000000  0.333333      2.000000
  0.166667  0.000000  0.333333      4.000000
  0.333333  0.000000  0.333333      4.000000
  0.500000  0.000000  0.333333      2.000000
  0.000000  0.083333  0.333333      4.000000
  0.166667  0.083333  0.333333      8.000000
  0.333333  0.083333  0.333333      8.000000
  0.500000  0.083333  0.333333      4.000000
  0.000000  0.166667  0.333333      4.000000
  0.166667  0.166667  0.333333      8.000000
  0.333333  0.166667  0.333333      8.000000
  0.500000  0.166667  0.333333      4.000000
  0.000000  0.250000  0.333333      4.000000
  0.166667  0.250000  0.333333      8.000000
  0.333333  0.250000  0.333333      8.000000
  0.500000  0.250000  0.333333      4.000000
  0.000000  0.333333  0.333333      4.000000
  0.166667  0.333333  0.333333      8.000000
  0.333333  0.333333  0.333333      8.000000
  0.500000  0.333333  0.333333      4.000000
  0.000000  0.416667  0.333333      4.000000
  0.166667  0.416667  0.333333      8.000000
  0.333333  0.416667  0.333333      8.000000
  0.500000  0.416667  0.333333      4.000000
  0.000000  0.500000  0.333333      2.000000
  0.166667  0.500000  0.333333      4.000000
  0.333333  0.500000  0.333333      4.000000
  0.500000  0.500000  0.333333      2.000000

 Following cartesian coordinates:
            Coordinates               Weight
  0.000000  0.000000  0.000000      1.000000
  0.015973  0.000000  0.000000      2.000000
  0.031946  0.000000  0.000000      2.000000
  0.047919  0.000000  0.000000      1.000000
  0.000000  0.017396  0.000000      2.000000
  0.015973  0.017396  0.000000      4.000000
  0.031946  0.017396  0.000000      4.000000
  0.047919  0.017396  0.000000      2.000000
  0.000000  0.034791  0.000000      2.000000
  0.015973  0.034791  0.000000      4.000000
  0.031946  0.034791  0.000000      4.000000
  0.047919  0.034791  0.000000      2.000000
  0.000000  0.052187  0.000000      2.000000
  0.015973  0.052187  0.000000      4.000000
  0.031946  0.052187  0.000000      4.000000
  0.047919  0.052187  0.000000      2.000000
  0.000000  0.069582  0.000000      2.000000
  0.015973  0.069582  0.000000      4.000000
  0.031946  0.069582  0.000000      4.000000
  0.047919  0.069582  0.000000      2.000000
  0.000000  0.086978  0.000000      2.000000
  0.015973  0.086978  0.000000      4.000000
  0.031946  0.086978  0.000000      4.000000
  0.047919  0.086978  0.000000      2.000000
  0.000000  0.104373  0.000000      1.000000
  0.015973  0.104373  0.000000      2.000000
  0.031946  0.104373  0.000000      2.000000
  0.047919  0.104373  0.000000      1.000000
  0.000000  0.000000  0.018768      2.000000
  0.015973  0.000000  0.018768      4.000000
  0.031946  0.000000  0.018768      4.000000
  0.047919  0.000000  0.018768      2.000000
  0.000000  0.017396  0.018768      4.000000
  0.015973  0.017396  0.018768      8.000000
  0.031946  0.017396  0.018768      8.000000
  0.047919  0.017396  0.018768      4.000000
  0.000000  0.034791  0.018768      4.000000
  0.015973  0.034791  0.018768      8.000000
  0.031946  0.034791  0.018768      8.000000
  0.047919  0.034791  0.018768      4.000000
  0.000000  0.052187  0.018768      4.000000
  0.015973  0.052187  0.018768      8.000000
  0.031946  0.052187  0.018768      8.000000
  0.047919  0.052187  0.018768      4.000000
  0.000000  0.069582  0.018768      4.000000
  0.015973  0.069582  0.018768      8.000000
  0.031946  0.069582  0.018768      8.000000
  0.047919  0.069582  0.018768      4.000000
  0.000000  0.086978  0.018768      4.000000
  0.015973  0.086978  0.018768      8.000000
  0.031946  0.086978  0.018768      8.000000
  0.047919  0.086978  0.018768      4.000000
  0.000000  0.104373  0.018768      2.000000
  0.015973  0.104373  0.018768      4.000000
  0.031946  0.104373  0.018768      4.000000
  0.047919  0.104373  0.018768      2.000000

 SYSTEM =  diamond
 POSCAR =  delta-Cesium_Lead_Iodide

 Startparameter for this run:
   NWRITE =      2    write-flag & timer
   PREC   = accura    normal or accurate (medium, high low for compatibility)
   ISTART =      0    job   : 0-new  1-cont  2-samecut
   ICHARG =      2    charge: 1-file 2-atom 10-const
   ISPIN  =      1    spin polarized calculation?
   LNONCOLLINEAR =      F non collinear calculations
   LSORBIT =      F    spin-orbit coupling
   INIWAV =      1    electr: 0-lowe 1-rand  2-diag
   LASPH  =      F    aspherical Exc in radial PAW
   METAGGA=      F    non-selfconsistent MetaGGA calc.

 Electronic Relaxation 1
   ENCUT  =  520.0 eV  38.22 Ry    6.18 a.u.  19.40  8.91 33.02*2*pi/ulx,y,z
   ENINI  =  520.0     initial cutoff
   ENAUG  =  407.9 eV  augmentation charge cutoff
   NELM   =     60;   NELMIN=  2; NELMDL= -5     # of ELM steps
   EDIFF  = 0.1E-06   stopping-criterion for ELM
   LREAL  =      F    real-space projection
   NLSPLINE    = F    spline interpolate recip. space projectors
   LCOMPAT=      F    compatible to vasp.4.4
[...]
   -.650E+02 0.491E-04 0.122E+03   0.662E+02 -.969E-05 -.123E+03   -.126E+01 0.173E-17 0.152E+01   -.399E-04 0.142E-07 0.778E-03
   -.190E+00 0.535E-04 -.121E+02   0.290E+00 -.548E-05 0.123E+02   -.987E-01 0.000E+00 -.132E+00   -.153E-03 0.174E-07 -.507E-03
   0.190E+00 0.125E-03 0.121E+02   -.290E+00 0.548E-05 -.123E+02   0.987E-01 0.000E+00 0.132E+00   0.153E-03 -.232E-07 0.502E-03
   0.190E+00 0.107E-03 -.121E+02   -.290E+00 0.548E-05 0.123E+02   0.987E-01 0.000E+00 -.132E+00   0.155E-03 -.177E-07 -.502E-03
   -.191E+00 0.358E-04 0.121E+02   0.290E+00 -.548E-05 -.123E+02   -.987E-01 0.000E+00 0.132E+00   -.153E-03 0.229E-07 0.502E-03
   -.250E-02 0.159E-02 0.919E-04   0.422E-14 0.171E-14 0.462E-13   -.444E-15 0.867E-18 -.222E-15   -.323E-05 0.340E-07 0.810E-05

 POSITION                                       TOTAL-FORCE (eV/Angst)
      1.67927      1.19763      7.79733         0.000492      0.000000     -0.002737
      8.75493      3.59288      9.96367        -0.000492      0.000000      0.002737
      3.53783      3.59288     16.67783        -0.000492      0.000000     -0.002737
      6.89637      1.19763      1.08317         0.000492     -0.000000      0.002737
      1.66861      1.19763      0.03521         0.001711      0.000000      0.001105
      8.76559      3.59288     17.72579        -0.001711      0.000000     -0.001105
      3.54849      3.59288      8.91571        -0.001711     -0.000000      0.001105
      6.88571      1.19763      8.84529         0.001711      0.000000     -0.001105
      3.13268      1.19763      5.06151         0.001401      0.000000     -0.001529
      7.30152      3.59288     12.69949        -0.001401      0.000000      0.001529
      2.08442      3.59288     13.94201        -0.001401      0.000000     -0.001529
      8.34978      1.19763      3.81899         0.001401      0.000000      0.001529
      0.35353      1.19763     10.90043        -0.002021     -0.000000     -0.003398
     10.08067      3.59288      6.86057         0.002021      0.000000      0.003398
      4.86357      3.59288      2.01993         0.002021     -0.000000     -0.003398
      5.57063      1.19763     15.74107        -0.002021      0.000000      0.003398
      4.35243      1.19763     11.93416         0.000812     -0.000000      0.001046
      6.08177      3.59288      5.82684        -0.000812      0.000000     -0.001046
      0.86467      3.59288      3.05366        -0.000812     -0.000000      0.001046
      9.56953      1.19763     14.70734         0.000812     -0.000000     -0.001046
    total drift:                               -0.002507      0.001591      0.000100

  FREE ENERGIE OF THE ION-ELECTRON SYSTEM (eV)
  free  energy   TOTEN  =       -56.65342387 eV

  energy  without entropy=      -56.65342387  energy(sigma->0) =      -56.65342387

[...]

 d Force = 0.1276117E-05[ 0.126E-05, 0.130E-05]  d Energy = 0.1269000E-05 0.712E-08
 d Force =-0.1163723E-01[-0.116E-01,-0.116E-01]  d Ewald  =-0.1163723E-01-0.200E-10

 Steepest descent step on ions:
 trial-energy change:   -0.000001  1 .order   -0.000001   -0.000001   -0.000001
  (g-gl).g = 0.130E-05      g.g   = 0.130E-05  gl.gl    = 0.000E+00
 g(Force)  = 0.130E-05   g(Stress)= 0.000E+00 ortho     = 0.000E+00
 gamma     =   0.00000
 trial     =   1.00000
 opt step  =   4.00000  (harmonic =  33.49955) maximal distance =0.00013115
 next E    =   -56.653446   (d E  =  -0.00002)

[...]

 d Force = 0.1307759E-04[ 0.656E-05, 0.196E-04]  d Energy = 0.1186693E-04 0.121E-05
 d Force =-0.2794924E+00[-0.280E+00,-0.279E+00]  d Ewald  =-0.2794924E+00 0.417E-07

[...]

 d Force =-0.1245237E-04[-0.380E-04, 0.131E-04]  d Energy =-0.1427912E-04 0.183E-05
 d Force =-0.5594097E+00[-0.560E+00,-0.559E+00]  d Ewald  =-0.5594100E+00 0.335E-06

[...]

 d Force = 0.1368405E-04[-0.904E-06, 0.283E-04]  d Energy = 0.1577200E-04-0.209E-05
 d Force = 0.4159336E+00[ 0.416E+00, 0.416E+00]  d Ewald  = 0.4159338E+00-0.137E-06

[...]

 d Force = 0.8126288E-05[ 0.672E-05, 0.953E-05]  d Energy = 0.7416749E-05 0.710E-06
 d Force = 0.1631415E+00[ 0.163E+00, 0.163E+00]  d Ewald  = 0.1631415E+00 0.220E-08

 Conjugate gradient step on ions:
 trial-energy change:   -0.000007  1 .order   -0.000008   -0.000010   -0.000007
  (g-gl).g = 0.915E-06      g.g   = 0.941E-06  gl.gl    = 0.130E-05
 g(Force)  = 0.941E-06   g(Stress)= 0.000E+00 ortho     = 0.253E-07
 gamma     =   0.70665
 trial     =   9.94504
 opt step  =  33.67488  (harmonic =  33.67488) maximal distance =0.00141717
 next E    =   -56.653476   (d E  =  -0.00002)

[...]

 d Force = 0.3253091E-05[ 0.239E-05, 0.411E-05]  d Energy = 0.2852439E-05 0.401E-06
 d Force = 0.1979939E+00[ 0.198E+00, 0.198E+00]  d Ewald  = 0.1979939E+00-0.897E-09

 Conjugate gradient step on ions:
 trial-energy change:   -0.000003  1 .order   -0.000003   -0.000004   -0.000002
  (g-gl).g = 0.250E-06      g.g   = 0.259E-06  gl.gl    = 0.941E-06
 g(Force)  = 0.259E-06   g(Stress)= 0.000E+00 ortho     =-0.332E-08
 gamma     =   0.26594
 trial     =  15.94911
 opt step  =  38.11493  (harmonic =  38.11493) maximal distance =0.00063851
 next E    =   -56.653481   (d E  =  -0.00000)

[...]

 eigenvalue-minimisations  : 15024
 total energy-change (2. order) : 0.8510689E-05  (-0.5053153E-03)
 number of electron     176.0000025 magnetization
 augmentation part       -5.8344426 magnetization

[...]

 Broyden mixing:
  rms(total) = 0.27624E-03    rms(broyden)= 0.27621E-03
  rms(prec ) = 0.29031E-03
  weight for this iteration     100.00

 eigenvalues of (default mixing * dielectric matrix)
  average eigenvalue GAMMA=   0.8607
  0.8607  0.8607

[...]

--------------------------------------- Iteration     13(   4)  ---------------------------------------

 eigenvalue-minimisations  : 10656
 total energy-change (2. order) :-0.2859633E-07  (-0.8533129E-08)
 number of electron     176.0000025 magnetization
 augmentation part       -5.8342992 magnetization

 Free energy of the ion-electron system (eV)
  alpha Z        PSCENC =       296.55173223
  Ewald energy   TEWEN  =     -8963.79899813
  -Hartree energ DENC   =     -3436.72952439
  -exchange      EXHF   =         0.00000000
  -V(xc)+E(xc)   XCENC  =        36.57533854
  PAW double counting   =     11949.40544228   -11536.33998065
  entropy T*S    EENTRO =        -0.00000000
  eigenvalues    EBANDS =     -1061.90767137
  atomic energy  EATOM  =     12659.59018207
  Solvation  Ediel_sol  =         0.00000000
  free energy    TOTEN  =       -56.65347941 eV

  energy without entropy =      -56.65347941  energy(sigma->0) =      -56.65347941

 average (electrostatic) potential at core
  the test charge radii are     1.1541  1.1875  1.1312
  (the norm of the test charge is              1.0000)
       1 -94.7235       2 -94.7235       3 -94.7234       4 -94.7235       5 -92.7269
       6 -92.7269       7 -92.7269       8 -92.7269       9 -92.4887      10 -92.4887
      11 -92.4887      12 -92.4887      13 -92.8864      14 -92.8864      15 -92.8864
      16 -92.8864      17 -48.1854      18 -48.1854      19 -48.1854      20 -48.1854

 E-fermi :   2.7766     XC(G=0):  -7.9115     alpha+bet : -8.3336

[...]

 k-point    56 :       0.5000    0.5000    0.3333
  band No.  band energies     occupation
      1     -18.4456      2.00000
      2     -18.4456      2.00000
      3     -18.4456      2.00000
      4     -18.4456      2.00000
      5     -14.1916      2.00000
      6     -14.1916      2.00000
      7     -14.1916      2.00000
      8     -14.1916      2.00000
      9     -14.1643      2.00000
     10     -14.1643      2.00000
     11     -14.1642      2.00000
     12     -14.1642      2.00000
     13     -14.1448      2.00000
     14     -14.1448      2.00000
     15     -14.1448      2.00000
     16     -14.1448      2.00000
     17     -14.1409      2.00000
     18     -14.1409      2.00000
     19     -14.1409      2.00000
     20     -14.1409      2.00000
     21     -14.1292      2.00000
     22     -14.1292      2.00000
     23     -14.1292      2.00000
     24     -14.1292      2.00000
     25      -9.4699      2.00000
     26      -9.4699      2.00000
     27      -9.4699      2.00000
     28      -9.4699      2.00000
     29      -9.2456      2.00000
     30      -9.2456      2.00000
     31      -9.2456      2.00000
     32      -9.2456      2.00000
     33      -9.1325      2.00000
     34      -9.1325      2.00000
     35      -9.1325      2.00000
     36      -9.1325      2.00000
     37      -5.5011      2.00000
     38      -5.5011      2.00000
     39      -5.5011      2.00000
     40      -5.5011      2.00000
     41      -5.3999      2.00000
     42      -5.3999      2.00000
     43      -5.3999      2.00000
     44      -5.3999      2.00000
     45      -5.2908      2.00000
     46      -5.2908      2.00000
     47      -5.2908      2.00000
     48      -5.2908      2.00000
     49      -5.2601      2.00000
     50      -5.2601      2.00000
     51      -5.2601      2.00000
     52      -5.2601      2.00000
     53      -0.7564      2.00000
     54      -0.7564      2.00000
     55      -0.7564      2.00000
     56      -0.7564      2.00000
     57      -0.5350      2.00000
     58      -0.5350      2.00000
     59      -0.5350      2.00000
     60      -0.5350      2.00000
[...]
    106       7.8042      0.00000
    107       7.8042      0.00000
    108       7.8042      0.00000
    109       7.9860      0.00000
    110       7.9860      0.00000
    111       7.9860      0.00000
    112       7.9860      0.00000
    113       8.4160      0.00000
    114       8.4160      0.00000
    115       8.4160      0.00000
    116       8.4160      0.00000
    117       8.8832      0.00000
    118       8.8832      0.00000
    119       8.8832      0.00000
    120       8.8832      0.00000

 soft charge-density along one line, spin component           1
         0         1         2         3         4         5         6         7         8         9
 total charge-density along one line

------------------------ aborting loop because EDIFF is reached ----------------------------------------

  FORCE on cell =-STRESS in cart. coord.  units (eV):
  Direction    XX          YY          ZZ          XY          YZ          ZX
  Alpha Z   296.55173   296.55173   296.55173
  Ewald   -3120.76849 -2509.95250 -3333.10209    -0.00001     0.00000    -0.00015
  Hartree  1052.64112  1568.15709   815.93382    -0.00000    -0.00000     0.00001
  E(xc)    -729.56726  -729.35748  -729.31880     0.00000    -0.00000    -0.00000
  Local   -1436.36655 -2558.08941  -985.26395     0.00001    -0.00000     0.00013
  n-local  1992.34180  1991.97737  1994.12888    -0.24828    -0.02713     0.00793
  augment    -5.26186    -3.71487    -4.00454     0.00000     0.00000     0.00000
  Kinetic  1956.66049  1950.68513  1951.13635    -0.11579    -0.01191     0.00297
  Fock        0.00000     0.00000     0.00000     0.00000     0.00000     0.00000
  Total       6.23098     6.25706     6.06141     0.00000     0.00000     0.00000
  in kB      11.24500    11.29207    10.93898     0.00000     0.00000     0.00000

 VOLUME and BASIS-vectors are now :
  energy-cutoff  :      520.00
  volume of cell :      887.78
      direct lattice vectors                 reciprocal lattice vectors
    10.434200287  0.000000000  0.000000000     0.095838682  0.000000000  0.000000000
     0.000000000  4.790500164  0.000000000     0.000000000  0.208746470  0.000000000
     0.000000000  0.000000000 17.760999680     0.000000000  0.000000000  0.056303137

  length of vectors
    10.434200287  4.790500164 17.760999680     0.095838682  0.208746470  0.056303137

 FORCES acting on ions
    electron-ion (+dipol)            ewald-force                    non-local-force                 convergence-correction
   -.625E+02 -.482E-04 0.527E+02   0.608E+02 -.183E-04 -.507E+02   0.169E+01 -.434E-18 -.191E+01   -.487E-03 -.520E-08 -.123E-02
   0.625E+02 0.541E-04 -.527E+02   -.608E+02 0.183E-04 0.507E+02   -.169E+01 0.434E-18 0.191E+01   0.487E-03 -.247E-08 0.123E-02
   0.625E+02 0.228E-03 0.527E+02   -.608E+02 0.183E-04 -.507E+02   -.169E+01 0.000E+00 -.191E+01   0.487E-03 0.252E-08 -.123E-02
   -.625E+02 0.126E-03 -.527E+02   0.608E+02 -.183E-04 0.507E+02   0.169E+01 -.867E-18 0.191E+01   -.487E-03 -.204E-09 0.123E-02
   0.922E+02 0.676E-04 -.481E+02   -.939E+02 -.117E-04 0.487E+02   0.169E+01 0.000E+00 -.562E+00   0.824E-03 0.131E-08 -.906E-03
   -.922E+02 0.125E-03 0.481E+02   0.939E+02 0.117E-04 -.487E+02   -.169E+01 0.000E+00 0.562E+00   -.824E-03 0.841E-09 0.906E-03
   -.922E+02 0.872E-04 -.481E+02   0.939E+02 0.117E-04 0.487E+02   -.169E+01 -.434E-18 -.562E+00   -.824E-03 -.413E-09 -.906E-03
   0.922E+02 0.295E-04 0.481E+02   -.939E+02 -.117E-04 -.487E+02   0.169E+01 0.434E-18 0.562E+00   0.824E-03 0.541E-10 0.906E-03
   -.396E+02 0.240E-04 0.765E+02   0.404E+02 -.489E-05 -.780E+02   -.804E+00 -.867E-18 0.148E+01   -.125E-03 0.764E-09 0.389E-03
   0.396E+02 0.922E-04 -.765E+02   -.404E+02 0.489E-05 0.780E+02   0.804E+00 0.867E-18 -.148E+01   0.125E-03 0.633E-09 -.389E-03
   0.396E+02 0.133E-03 0.765E+02   -.404E+02 0.489E-05 -.780E+02   0.804E+00 -.867E-18 0.148E+01   0.125E-03 -.697E-09 0.389E-03
   -.396E+02 0.647E-04 -.765E+02   0.404E+02 -.489E-05 0.780E+02   -.804E+00 0.173E-17 -.148E+01   -.125E-03 -.567E-09 -.389E-03
   -.651E+02 0.335E-04 -.121E+03   0.663E+02 -.971E-05 0.123E+03   -.127E+01 -.867E-18 -.151E+01   -.549E-03 0.372E-10 0.113E-02
   0.651E+02 0.941E-04 0.121E+03   -.663E+02 0.971E-05 -.123E+03   0.127E+01 0.867E-18 0.151E+01   0.549E-03 0.666E-09 -.113E-02
   0.651E+02 0.110E-03 -.121E+03   -.663E+02 0.971E-05 0.123E+03   0.127E+01 -.867E-18 -.151E+01   0.549E-03 -.238E-09 0.113E-02
   -.651E+02 0.491E-04 0.121E+03   0.663E+02 -.971E-05 -.123E+03   -.127E+01 0.000E+00 0.151E+01   -.549E-03 -.867E-09 -.113E-02
   -.137E+00 0.535E-04 -.120E+02   0.235E+00 -.548E-05 0.122E+02   -.988E-01 -.217E-18 -.132E+00   0.235E-03 -.996E-09 0.106E-02
   0.136E+00 0.125E-03 0.120E+02   -.235E+00 0.548E-05 -.122E+02   0.988E-01 0.217E-18 0.132E+00   -.235E-03 -.150E-08 -.106E-02
   0.136E+00 0.107E-03 -.120E+02   -.235E+00 0.548E-05 0.122E+02   0.988E-01 -.434E-18 -.132E+00   -.235E-03 0.249E-09 0.106E-02
   -.137E+00 0.358E-04 0.120E+02   0.235E+00 -.548E-05 -.122E+02   -.988E-01 0.434E-18 0.132E+00   0.235E-03 0.749E-09 -.106E-02
   -.250E-02 0.159E-02 0.919E-04   -.185E-13 0.171E-14 -.213E-13   -.458E-15 -.867E-18 0.500E-15   -.363E-07 -.532E-08 0.109E-07

 POSITION                                       TOTAL-FORCE (eV/Angst)
      1.68102      1.19763      7.79506         0.000033      0.000000      0.000669
      8.75318      3.59288      9.96594        -0.000033      0.000000     -0.000669
      3.53608      3.59288     16.67556        -0.000033      0.000000      0.000669
      6.89812      1.19763      1.08544         0.000033     -0.000000     -0.000669
      1.66922      1.19763      0.03708        -0.000238      0.000000     -0.000505
      8.76499      3.59288     17.72392         0.000238     -0.000000      0.000505
      3.54788      3.59288      8.91758         0.000238     -0.000000     -0.000505
      6.88632      1.19763      8.84342        -0.000238      0.000000      0.000505
      3.13440      1.19763      5.05872        -0.000017     -0.000000     -0.000300
      7.29980      3.59288     12.70228         0.000017      0.000000      0.000300
      2.08270      3.59288     13.93922         0.000017     -0.000000     -0.000300
      8.35150      1.19763      3.82178        -0.000017      0.000000      0.000300
      0.35275      1.19763     10.89728        -0.000527      0.000000     -0.000602
     10.08145      3.59288      6.86372         0.000527      0.000000      0.000602
      4.86435      3.59288      2.01678         0.000527      0.000000     -0.000602
      5.56985      1.19763     15.74422        -0.000527      0.000000      0.000602
      4.35317      1.19763     11.93493         0.000017     -0.000000      0.000038
      6.08103      3.59288      5.82607        -0.000017      0.000000     -0.000038
      0.86393      3.59288      3.05443        -0.000017     -0.000000      0.000038
      9.57027      1.19763     14.70657         0.000017      0.000000     -0.000038
    total drift:                               -0.002504      0.001591      0.000092

  FREE ENERGIE OF THE ION-ELECTRON SYSTEM (eV)
  free  energy   TOTEN  =       -56.65347941 eV

  energy  without entropy=      -56.65347941  energy(sigma->0) =      -56.65347941

 d Force = 0.1488990E-05[-0.347E-06, 0.332E-05]  d Energy = 0.7960880E-06 0.693E-06
 d Force = 0.2750283E+00[ 0.275E+00, 0.275E+00]  d Ewald  = 0.2750283E+00-0.287E-08

 reached required accuracy - stopping structural energy minimisation
 writing wavefunctions