 vasp.5.4.4.18Apr17-6-g9f103f2a35 (build Aug 19 2019 13:15:05) complex

 executed on             LinuxIFC date 2020.04.22  10:20:21

 INCAR:
 POTCAR:    PAW_PBE I 08Apr2002
 POTCAR:    PAW_PBE Pb_d 06Sep2000
 POTCAR:    PAW_PBE Cs_sv 08Apr2002

 POTCAR:    PAW_PBE I 08Apr2002
   VRHFIN =I : s2p5

   TITEL  = PAW_PBE I 08Apr2002
   POMASS =  126.904; ZVAL   =    7.000    mass and valenz
   ENMAX  =  175.647; ENMIN  =  131.735 eV

 POTCAR:    PAW_PBE Pb_d 06Sep2000
   VRHFIN =Pb:

   TITEL  = PAW_PBE Pb_d 06Sep2000
   POMASS =  207.200; ZVAL   =   14.000    mass and valenz
   ENMAX  =  237.835; ENMIN  =  178.376 eV

 POTCAR:    PAW_PBE Cs_sv 08Apr2002
   VRHFIN =Cs: 5s5p6s

   TITEL  = PAW_PBE Cs_sv 08Apr2002
   POMASS =  132.900; ZVAL   =    9.000    mass and valenz
   ENMAX  =  220.318; ENMIN  =  165.238 eV

 Optimization of the real space projectors (new method)

 maximal supplied QI-value         = 16.25
 optimisation between [QCUT,QGAM] = [ 10.73, 21.61] = [ 32.22,130.83] Ry
 Optimized for a Real-space Cutoff    1.30 Angstroem

   l    n(q)    QCUT    max X(q) W(low)/X(q) W(high)/X(q)  e(spline)
   0      8    10.726   194.483    0.28E-03    0.91E-04    0.87E-07
   0      8    10.726   190.334    0.27E-03    0.88E-04    0.85E-07
   1      8    10.726   116.687    0.16E-03    0.48E-03    0.15E-06
   1      8    10.726    88.696    0.16E-03    0.47E-03    0.15E-06
   2      7    10.726     4.877    0.19E-03    0.30E-04    0.27E-07
 Optimization of the real space projectors (new method)

[...]

   l    n(q)    QCUT    max X(q) W(low)/X(q) W(high)/X(q)  e(spline)
   2      8    10.734     3.846    0.42E-03    0.65E-04    0.45E-07
   2      8    10.734     8.593    0.38E-03    0.21E-03    0.11E-06
   0      9    10.734    20.082    0.60E-04    0.15E-03    0.97E-07
   0      9    10.734     8.597    0.89E-04    0.21E-03    0.14E-06
   1      8    10.734    33.223    0.23E-03    0.26E-03    0.11E-06
   1      8    10.734    15.899    0.21E-03    0.24E-03    0.10E-06
 Optimization of the real space projectors (new method)

 maximal supplied QI-value         = 15.12
 optimisation between [QCUT,QGAM] = [ 10.73, 21.62] = [ 32.26,130.87] Ry
 Optimized for a Real-space Cutoff    1.55 Angstroem

   l    n(q)    QCUT    max X(q) W(low)/X(q) W(high)/X(q)  e(spline)
   0     10    10.734    25.322    0.12E-03    0.12E-04    0.48E-06
   0     10    10.734    99.187    0.12E-03    0.12E-04    0.47E-06
   1     10    10.734    11.761    0.20E-03    0.42E-03    0.27E-06
   1     10    10.734     8.275    0.21E-03    0.46E-03    0.30E-06
   2      9    10.734     3.829    0.32E-03    0.79E-04    0.33E-06
  PAW_PBE I 08Apr2002                   :
  PAW_PBE Pb_d 06Sep2000                :
  PAW_PBE Cs_sv 08Apr2002               :

 POSCAR: CsPbI3_325K
  positions in direct lattice
  velocities in cartesian coordinates
 exchange correlation table for  LEXCH =        8
   RHO(1)=    0.500       N(1)  =     2000
   RHO(2)=  100.500       N(2)  =     4000

 ion  position               nearest neighbor table
   1  0.192  0.306  0.540-  14 3.21  13 3.21
   2  0.808  0.694  0.460-  14 3.21  13 3.21
   3  0.692  0.194  0.460-  13 3.21  14 3.21
   4  0.308  0.806  0.540-  13 3.21  14 3.21
   5  0.808  0.694  0.040-  16 3.21  15 3.21
   6  0.192  0.306  0.960-  16 3.21  15 3.21
   7  0.308  0.806  0.960-  15 3.21  16 3.21
   8  0.692  0.194  0.040-  15 3.21  16 3.21
   9  0.918  0.000  0.750-  15 3.21  13 3.21
  10  0.082  1.000  0.250-  13 3.21  15 3.21
  11  0.418  0.500  0.250-  14 3.21  16 3.21
  12  0.582  0.500  0.750-  16 3.21  14 3.21
  13  0.000  0.000  0.500-   3 3.21   4 3.21  10 3.21   9 3.21   1 3.21   2 3.21
  14  0.500  0.500  0.500-   2 3.21   1 3.21  11 3.21  12 3.21   3 3.21   4 3.21
  15  0.000  0.000  0.000-   8 3.21   7 3.21   9 3.21  10 3.21   6 3.21   5 3.21
  16  0.500  0.500  0.000-   5 3.21   6 3.21  12 3.21  11 3.21   8 3.21   7 3.21
  17  0.978  0.424  0.250-
  18  0.022  0.576  0.750-
  19  0.478  0.076  0.750-
  20  0.522  0.924  0.250-

  LATTYP: Found a simple orthorhombic cell.
 ALAT       =     8.6751003265
 B/A-ratio  =     1.0171640703
 C/A-ratio  =     1.4438795264

  Lattice vectors:

 A1 = (   8.6751003265,   0.0000000000,   0.0000000000)
 A2 = (   0.0000000000,   8.8240003586,   0.0000000000)
 A3 = (   0.0000000000,   0.0000000000,  12.5257997513)

Analysis of symmetry for initial positions (statically):
 Subroutine PRICEL returns:
 Original cell was already a primitive cell.

 Routine SETGRP: Setting up the symmetry group for a
 simple orthorhombic supercell.

 Subroutine GETGRP returns: Found  8 space group operations
 (whereof  2 operations were pure point group operations)
 out of a pool of  8 trial point group operations.

The static configuration has the point symmetry S_2 .
 The point group associated with its full space group is D_2h.

Analysis of symmetry for dynamics (positions and initial velocities):
 Subroutine PRICEL returns:
 Original cell was already a primitive cell.

 Routine SETGRP: Setting up the symmetry group for a
 simple orthorhombic supercell.

 Subroutine GETGRP returns: Found  8 space group operations
 (whereof  2 operations were pure point group operations)
 out of a pool of  8 trial point group operations.

The dynamic configuration has the point symmetry S_2 .
 The point group associated with its full space group is D_2h.

 Subroutine INISYM returns: Found  8 space group operations
 (whereof  2 operations are pure point group operations),
 and found     1 'primitive' translations

 KPOINTS: KPT-Resolved Value to Generate K-Mesh: 0

Automatic generation of k-mesh.
Space group operators:
 irot       det(A)        alpha          n_x          n_y          n_z        tau_x        tau_y        tau_z
    1     1.000000     0.000000     1.000000     0.000000     0.000000     0.000000     0.000000     0.000000
    2    -1.000000     0.000000     1.000000     0.000000     0.000000     0.000000     0.000000     0.000000
    3     1.000000   180.000000     0.000000     0.000000     1.000000     0.000000     0.000000     0.500000
    4    -1.000000   180.000000     0.000000     0.000000     1.000000     0.000000     0.000000     0.500000
    5     1.000000   180.000000     0.000000     1.000000     0.000000     0.500000     0.500000     0.500000
    6    -1.000000   180.000000     0.000000     1.000000     0.000000     0.500000     0.500000     0.500000
    7     1.000000   179.999999     1.000000     0.000000     0.000000     0.500000     0.500000     0.000000
    8    -1.000000   179.999999     1.000000     0.000000     0.000000     0.500000     0.500000     0.000000

 Subroutine IBZKPT returns following result:

 Found      8 irreducible k-points:

 Following reciprocal coordinates:
            Coordinates               Weight
  0.000000  0.000000  0.000000      1.000000
  0.333333  0.000000  0.000000      2.000000
  0.000000  0.333333  0.000000      2.000000
  0.333333  0.333333  0.000000      4.000000
  0.000000  0.000000  0.500000      1.000000
  0.333333  0.000000  0.500000      2.000000
  0.000000  0.333333  0.500000      2.000000
  0.333333  0.333333  0.500000      4.000000

 Following cartesian coordinates:
            Coordinates               Weight
  0.000000  0.000000  0.000000      1.000000
  0.038424  0.000000  0.000000      2.000000
  0.000000  0.037776  0.000000      2.000000
  0.038424  0.037776  0.000000      4.000000
  0.000000  0.000000  0.039918      1.000000
  0.038424  0.000000  0.039918      2.000000
  0.000000  0.037776  0.039918      2.000000
  0.038424  0.037776  0.039918      4.000000

 TETIRR: Found     51 inequivalent tetrahedra from      108

 Subroutine IBZKPT_HF returns following result:

 Found     18 k-points in 1st BZ
 the following     18 k-points will be used (e.g. in the exchange kernel)
 Following reciprocal coordinates:   # in IRBZ
  0.000000  0.000000  0.000000    0.05555556   1 t-inv F
  0.333333  0.000000  0.000000    0.05555556   2 t-inv F
  0.000000  0.333333  0.000000    0.05555556   3 t-inv F
  0.333333  0.333333  0.000000    0.05555556   4 t-inv F
  0.000000  0.000000  0.500000    0.05555556   5 t-inv F
  0.333333  0.000000  0.500000    0.05555556   6 t-inv F
  0.000000  0.333333  0.500000    0.05555556   7 t-inv F
  0.333333  0.333333  0.500000    0.05555556   8 t-inv F
 -0.333333  0.000000  0.000000    0.05555556   2 t-inv F
  0.000000 -0.333333  0.000000    0.05555556   3 t-inv F
 -0.333333 -0.333333  0.000000    0.05555556   4 t-inv F
 -0.333333  0.333333  0.000000    0.05555556   4 t-inv F
  0.333333 -0.333333  0.000000    0.05555556   4 t-inv F
 -0.333333  0.000000 -0.500000    0.05555556   6 t-inv F
  0.000000 -0.333333 -0.500000    0.05555556   7 t-inv F
 -0.333333 -0.333333 -0.500000    0.05555556   8 t-inv F
 -0.333333  0.333333 -0.500000    0.05555556   8 t-inv F
  0.333333 -0.333333  0.500000    0.05555556   8 t-inv F

 SYSTEM =  unknown system
 POSCAR =  CsPbI3_325K

 Startparameter for this run:
   NWRITE =      2    write-flag & timer
   PREC   = normal    normal or accurate (medium, high low for compatibility)
   ISTART =      1    job   : 0-new  1-cont  2-samecut
   ICHARG =     11    charge: 1-file 2-atom 10-const
   ISPIN  =      1    spin polarized calculation?
   LNONCOLLINEAR =      F non collinear calculations
   LSORBIT =      F    spin-orbit coupling
   INIWAV =      1    electr: 0-lowe 1-rand  2-diag
   LASPH  =      F    aspherical Exc in radial PAW
   METAGGA=      F    non-selfconsistent MetaGGA calc.

 Electronic Relaxation 1
   ENCUT  =  520.0 eV  33.07 Ry    5.75 a.u.  15.01 15.26 21.67*2*pi/ulx,y,z
   ENINI  =  520.0     initial cutoff
   ENAUG  =  407.9 eV  augmentation charge cutoff
   NELM   =     60;   NELMIN=  2; NELMDL=  0     # of ELM steps
   EDIFF  = 0.1E-05   stopping-criterion for ELM
   LREAL  =      T    real-space projection
   NLSPLINE    = F    spline interpolate recip. space projectors
   LCOMPAT=      F    compatible to vasp.4.4
   GGA_COMPAT  = T    GGA compatible to vasp.4.4-vasp.4.6
   LMAXPAW     = -100 max onsite density
   LMAXMIX     =    2 max onsite mixed and CHGCAR
   VOSKOWN=      0    Vosko Wilk Nusair interpolation
   ROPT   =   -0.00050  -0.00050  -0.00050
 Ionic relaxation
   EDIFFG = 0.1E-04   stopping-criterion for IOM
   NSW    =      0    number of steps for IOM
   NBLOCK =      1;   KBLOCK =      1    inner block; outer block
   IBRION =     -1    ionic relax: 0-MD 1-quasi-New 2-CG
   NFREE  =      0    steps in history (QN), initial steepest desc. (CG)
   ISIF   =      0    stress and relaxation
   IWAVPR =     10    prediction:  0-non 1-charg 2-wave 3-comb
   ISYM   =      3    0-nonsym 1-usesym 2-fastsym
   LCORR  =      T    Harris-Foulkes like correction to forces

   POTIM  = 0.5000    time-step for ionic-motion
   TEIN   =    0.0    initial temperature
   TEBEG  =    0.0;   TEEND  =   0.0 temperature during run
   SMASS  =  -3.00    Nose mass-parameter (am)
   estimated Nose-frequenzy (Omega)   =  0.10E-29 period in steps =****** mass=  -0.172E-26a.u.
   SCALEE = 1.0000    scale energy and forces
   NPACO  =    256;   APACO  = 16.0  distance and # of slots for P.C.
   PSTRESS=    0.0 pullay stress

  Mass of Ions in am
[...]
       energy cutoff for augmentation   1800.0
 Maximum index for augmentation-charges in exchange         2310
  SETUP_FOCK is finished

 initial charge density was supplied:
 number of electron     175.9999998 magnetization
 keeping initial charge density in first step

 Maximum index for non-local projection operator         2576
 BZINTS: Fermi energy:  1.232282;176.000000 electrons
         Band energy:***********;  BLOECHL correction:  0.000000
 Maximum index for augmentation-charges         2033 (set IRDMAX)

 First call to EWALD:  gamma=   0.180
 Maximum number of real-space cells 3x 3x 2
 Maximum number of reciprocal cells 2x 3x 3

--------------------------------------- Iteration      1(   1)  ---------------------------------------

 BZINTS: Fermi energy:  1.232286;176.000000 electrons
         Band energy:***********;  BLOECHL correction:  0.000000
 BZINTS: Fermi energy:  1.232285;176.000000 electrons
         Band energy:***********;  BLOECHL correction:  0.000000

 eigenvalue-minimisations  :     0
 total energy-change (2. order) :-0.6746417E+02  (-0.9728877E-06)
 number of electron     175.9999998 magnetization
 augmentation part      175.9999998 magnetization

 Free energy of the ion-electron system (eV)
  alpha Z        PSCENC =       274.57589780
  Ewald energy   TEWEN  =     -8733.92648156
  -Hartree energ DENC   =     -3543.20239058
  -exchange      EXHF   =       317.38537971
  -V(xc)+E(xc)   XCENC  =        13.63338186
  PAW double counting   =     15592.28886958   -15232.74816436
  entropy T*S    EENTRO =         0.00000000
  eigenvalues    EBANDS =     -1397.80728675
  atomic energy  EATOM  =     12642.33662683
  free energy    TOTEN  =       -67.46416747 eV

  energy without entropy =      -67.46416747  energy(sigma->0) =      -67.46416747
  exchange ACFDT corr.  =         0.00000000  see jH, gK, PRB 81, 115126

--------------------------------------- Iteration      1(   2)  ---------------------------------------

 BZINTS: Fermi energy:  1.232039;176.000000 electrons
         Band energy:***********;  BLOECHL correction:  0.000000
 BZINTS: Fermi energy:  1.231897;176.000000 electrons
         Band energy:***********;  BLOECHL correction:  0.000000

 eigenvalue-minimisations  :     0
 total energy-change (2. order) :-0.9728810E-06  (-0.1898498E-06)
 number of electron     175.9999998 magnetization
 augmentation part      175.9999998 magnetization

 Free energy of the ion-electron system (eV)
  alpha Z        PSCENC =       274.57589780
  Ewald energy   TEWEN  =     -8733.92648156
  -Hartree energ DENC   =     -3543.20239058
  -exchange      EXHF   =       317.38600011
  -V(xc)+E(xc)   XCENC  =        13.63338186
  PAW double counting   =     15592.28886958   -15232.74816436
  entropy T*S    EENTRO =         0.00000000
  eigenvalues    EBANDS =     -1397.80760983
  atomic energy  EATOM  =     12642.33662683
  free energy    TOTEN  =       -67.46416844 eV

  energy without entropy =      -67.46416844  energy(sigma->0) =      -67.46416844
  exchange ACFDT corr.  =         0.00000000  see jH, gK, PRB 81, 115126

  average scaling for gradient   0.8702

 average (electrostatic) potential at core
  the test charge radii are     1.1875  1.1541  1.1312
  (the norm of the test charge is              1.0000)
       1 -89.6025       2 -89.6025       3 -89.6025       4 -89.6025       5 -89.6025
       6 -89.6025       7 -89.6025       8 -89.6025       9 -89.5768      10 -89.5768
      11 -89.5768      12 -89.5768      13 -89.7922      14 -89.7923      15 -89.7922
      16 -89.7923      17 -45.5508      18 -45.5508      19 -45.5508      20 -45.5508

 E-fermi :   1.2319     XC(G=0):  -6.3178     alpha+bet : -7.7161

 k-point     1 :       0.0000    0.0000    0.0000
  band No.  band energies     occupation
      1     -21.1932      2.00000
      2     -21.1925      2.00000
      3     -21.1913      2.00000
      4     -21.1909      2.00000
      5     -17.0774      2.00000
      6     -17.0749      2.00000
      7     -17.0746      2.00000
      8     -17.0719      2.00000
      9     -17.0676      2.00000
     10     -17.0621      2.00000
     11     -17.0588      2.00000
     12     -17.0588      2.00000
     13     -17.0192      2.00000
     14     -17.0189      2.00000
     15     -17.0185      2.00000
     16     -17.0182      2.00000
     17     -17.0141      2.00000
     18     -17.0137      2.00000
     19     -17.0135      2.00000
     20     -17.0131      2.00000
     21     -17.0090      2.00000
     22     -17.0088      2.00000
     23     -17.0081      2.00000
     24     -17.0079      2.00000
     25     -12.0010      2.00000
     26     -11.8107      2.00000
     27     -11.5255      2.00000
     28     -11.4951      2.00000
     29     -11.4913      2.00000
     30     -11.4779      2.00000
     31     -11.4728      2.00000
     32     -11.4589      2.00000
     33     -11.4538      2.00000
     34     -11.2713      2.00000
     35     -11.2600      2.00000
     36     -11.2599      2.00000
     37      -7.6851      2.00000
     38      -7.1889      2.00000
     39      -7.0686      2.00000
     40      -7.0647      2.00000
     41      -7.0571      2.00000
     42      -7.0568      2.00000
     43      -7.0508      2.00000
     44      -7.0480      2.00000
     45      -7.0450      2.00000
     46      -7.0374      2.00000
     47      -7.0226      2.00000
     48      -7.0083      2.00000
     49      -7.0026      2.00000
     50      -6.9752      2.00000
     51      -6.5897      2.00000
     52      -6.0481      2.00000
     53      -2.4069      2.00000
     54      -2.4066      2.00000
     55      -2.3130      2.00000
     56      -2.2618      2.00000
     57      -2.1387      2.00000
     58      -2.0731      2.00000
     59      -1.2933      2.00000
     60      -1.0433      2.00000
[...]
    106       7.1305      0.00000
    107       7.1725      0.00000
    108       7.3711      0.00000
    109       7.4308      0.00000
    110       7.4451      0.00000
    111       7.5905      0.00000
    112       7.6084      0.00000
    113       7.8723      0.00000
    114       7.9323      0.00000
    115       8.0269      0.00000
    116       8.1668      0.00000
    117       8.2258      0.00000
    118       8.2823      0.00000
    119       8.4043      0.00000
    120       8.6256      0.00000

[...]

 k-point     8 :       0.3333    0.3333    0.5000
  band No.  band energies     occupation
      1     -21.1922      2.00000
      2     -21.1922      2.00000
      3     -21.1917      2.00000
      4     -21.1917      2.00000
      5     -17.0732      2.00000
      6     -17.0732      2.00000
      7     -17.0711      2.00000
      8     -17.0711      2.00000
      9     -17.0660      2.00000
     10     -17.0659      2.00000
     11     -17.0629      2.00000
     12     -17.0628      2.00000
     13     -17.0188      2.00000
     14     -17.0188      2.00000
     15     -17.0186      2.00000
     16     -17.0186      2.00000
     17     -17.0137      2.00000
     18     -17.0137      2.00000
     19     -17.0136      2.00000
     20     -17.0135      2.00000
     21     -17.0086      2.00000
     22     -17.0086      2.00000
     23     -17.0084      2.00000
     24     -17.0084      2.00000
     25     -11.7909      2.00000
     26     -11.7909      2.00000
     27     -11.6794      2.00000
     28     -11.6794      2.00000
     29     -11.4961      2.00000
     30     -11.4961      2.00000
     31     -11.4247      2.00000
     32     -11.4247      2.00000
     33     -11.3265      2.00000
     34     -11.3265      2.00000
     35     -11.3073      2.00000
     36     -11.3073      2.00000
     37      -7.1417      2.00000
     38      -7.1417      2.00000
     39      -7.0658      2.00000
     40      -7.0658      2.00000
     41      -7.0566      2.00000
     42      -7.0566      2.00000
     43      -7.0389      2.00000
     44      -7.0389      2.00000
     45      -7.0244      2.00000
     46      -7.0244      2.00000
     47      -7.0100      2.00000
     48      -7.0100      2.00000
     49      -6.9405      2.00000
     50      -6.9405      2.00000
     51      -6.7484      2.00000
     52      -6.7484      2.00000
     53      -2.1921      2.00000
     54      -2.1921      2.00000
     55      -1.8161      2.00000
     56      -1.8161      2.00000
     57      -1.5838      2.00000
     58      -1.5838      2.00000
     59      -1.4238      2.00000
     60      -1.4238      2.00000
[...]
    106       7.2820      0.00000
    107       7.3019      0.00000
    108       7.3021      0.00000
    109       7.4408      0.00000
    110       7.4411      0.00000
    111       7.5716      0.00000
    112       7.5723      0.00000
    113       7.8639      0.00000
    114       7.8648      0.00000
    115       8.1417      0.00000
    116       8.1425      0.00000
    117       8.2012      0.00000
    118       8.2019      0.00000
    119       8.4352      0.00000
    120       8.5385      0.00000

 soft charge-density along one line, spin component           1
         0         1         2         3         4         5         6         7         8         9
 total charge-density along one line

------------------------ aborting loop because EDIFF is reached ----------------------------------------

 total charge

# of ion       s       p       d       tot
    1        1.503   2.879   0.006   4.388
    2        1.503   2.879   0.006   4.388
    3        1.501   2.900   0.006   4.407
    4        1.501   2.900   0.006   4.407
    5        1.503   2.879   0.006   4.388
    6        1.503   2.879   0.006   4.388
    7        1.501   2.900   0.006   4.407
    8        1.501   2.900   0.006   4.407
    9        1.502   2.892   0.006   4.400
   10        1.502   2.892   0.006   4.400
   11        1.502   2.892   0.006   4.400
   12        1.502   2.892   0.006   4.400
   13        1.525   0.440   9.843  11.808
   14        1.525   0.440   9.843  11.808
   15        1.525   0.440   9.843  11.808
   16        1.525   0.440   9.843  11.808
   17        2.292   4.724   0.020   7.035
   18        2.292   4.724   0.020   7.035
   19        2.292   4.724   0.020   7.035
   20        2.292   4.724   0.020   7.035
tot         33.289  55.338  39.523 128.151

 VOLUME and BASIS-vectors are now :
  energy-cutoff  :      450.00
  volume of cell :      958.84
      direct lattice vectors                 reciprocal lattice vectors
     8.675100327  0.000000000  0.000000000     0.115272442  0.000000000  0.000000000
     0.000000000  8.824000359  0.000000000     0.000000000  0.113327285  0.000000000
     0.000000000  0.000000000 12.525799751     0.000000000  0.000000000  0.079835222

  length of vectors
     8.675100327  8.824000359 12.525799751     0.115272442  0.113327285  0.079835222

 FORCES acting on ions
    electron-ion (+dipol)            ewald-force                    non-local-force                 convergence-correction
   0.238E+02 -.190E+02 -.171E+02   -.244E+02 0.195E+02 0.175E+02   0.539E+00 -.456E+00 -.379E+00   -.773E-03 0.190E-03 -.831E-03
   -.238E+02 0.190E+02 0.171E+02   0.244E+02 -.195E+02 -.175E+02   -.539E+00 0.456E+00 0.379E+00   0.694E-03 -.264E-03 0.808E-03
   0.238E+02 0.190E+02 0.171E+02   -.244E+02 -.195E+02 -.175E+02   0.539E+00 0.456E+00 0.379E+00   -.693E-03 -.199E-03 0.807E-03
   -.238E+02 -.190E+02 -.171E+02   0.244E+02 0.195E+02 0.175E+02   -.539E+00 -.456E+00 -.379E+00   0.772E-03 0.266E-03 -.822E-03
   -.238E+02 0.190E+02 -.171E+02   0.244E+02 -.195E+02 0.175E+02   -.539E+00 0.456E+00 -.379E+00   0.701E-03 -.261E-03 -.825E-03
   0.238E+02 -.190E+02 0.171E+02   -.244E+02 0.195E+02 -.175E+02   0.539E+00 -.456E+00 0.379E+00   -.777E-03 0.188E-03 0.830E-03
   -.238E+02 -.190E+02 0.171E+02   0.244E+02 0.195E+02 -.175E+02   -.539E+00 -.456E+00 0.379E+00   0.768E-03 0.273E-03 0.823E-03
   0.238E+02 0.190E+02 -.171E+02   -.244E+02 -.195E+02 0.175E+02   0.539E+00 0.456E+00 -.379E+00   -.692E-03 -.205E-03 -.826E-03
   0.347E+02 -.120E+02 -.620E-04   -.354E+02 0.124E+02 -.595E-04   0.715E+00 -.382E+00 0.000E+00   -.832E-03 0.742E-03 0.668E-04
   -.347E+02 0.120E+02 -.148E-04   0.354E+02 -.124E+02 0.101E-04   -.715E+00 0.382E+00 0.000E+00   0.761E-03 -.706E-03 -.325E-04
   0.347E+02 0.120E+02 -.199E-04   -.354E+02 -.124E+02 0.101E-04   0.715E+00 0.382E+00 0.000E+00   -.751E-03 -.729E-03 -.260E-04
   -.347E+02 -.120E+02 -.566E-04   0.354E+02 0.124E+02 -.595E-04   -.715E+00 -.382E+00 0.000E+00   0.786E-03 0.732E-03 0.605E-04
   0.163E-05 -.244E-05 -.521E-07   -.946E-05 -.823E-04 0.310E-04   0.000E+00 0.000E+00 0.000E+00   0.629E-05 0.872E-04 -.330E-04
   -.210E-05 -.104E-05 0.113E-05   -.780E-04 -.228E-04 0.438E-04   0.000E+00 0.000E+00 0.000E+00   0.833E-04 0.221E-04 -.472E-04
   -.113E-05 -.841E-06 0.603E-06   -.251E-06 -.790E-04 0.141E-04   0.000E+00 0.000E+00 0.000E+00   -.285E-05 0.835E-04 -.136E-04
   -.902E-06 -.795E-06 0.404E-06   -.872E-04 -.195E-04 0.123E-05   0.000E+00 0.000E+00 0.000E+00   0.923E-04 0.184E-04 0.226E-06
   -.936E+01 -.266E+02 -.184E-04   0.945E+01 0.266E+02 0.141E-04   -.782E-01 0.452E-01 0.000E+00   -.257E-03 0.108E-02 -.370E-04
   0.936E+01 0.266E+02 -.924E-04   -.945E+01 -.266E+02 -.367E-04   0.782E-01 -.452E-01 0.000E+00   0.204E-03 -.112E-02 0.985E-04
   -.936E+01 0.266E+02 -.910E-04   0.945E+01 -.266E+02 -.367E-04   -.782E-01 -.452E-01 0.000E+00   -.213E-03 -.114E-02 0.981E-04
   0.936E+01 -.266E+02 -.215E-04   -.945E+01 0.266E+02 0.141E-04   0.782E-01 0.452E-01 0.000E+00   0.235E-03 0.110E-02 -.352E-04
   0.111E-03 -.159E-03 -.463E-03   0.178E-14 0.284E-13 -.185E-13   -.222E-15 -.104E-15 -.167E-15   0.112E-03 0.169E-03 0.635E-04

 POSITION                                       TOTAL-FORCE (eV/Angst)
      1.66797      2.69903      6.76746         0.029699     -0.013960     -0.025727
      7.00713      6.12497      5.75834        -0.029699      0.013960      0.025727
      6.00552      1.71297      5.75834         0.029699      0.013960      0.025727
      2.66958      7.11103      6.76746        -0.029699     -0.013960     -0.025727
      7.00713      6.12497      0.50456        -0.029699      0.013960     -0.025727
      1.66797      2.69903     12.02124         0.029699     -0.013960      0.025727
      2.66958      7.11103     12.02124        -0.029699     -0.013960      0.025727
      6.00552      1.71297      0.50456         0.029699      0.013960     -0.025727
      7.96010      0.00066      9.39435         0.008808     -0.009705      0.000000
      0.71500      8.82334      3.13145        -0.008808      0.009705      0.000000
      3.62255      4.41134      3.13145         0.008808      0.009705      0.000000
      5.05255      4.41266      9.39435        -0.008808     -0.009705      0.000000
      0.00000      0.00000      6.26290         0.000000     -0.000000      0.000000
      4.33755      4.41200      6.26290         0.000000     -0.000000      0.000000
      0.00000      0.00000      0.00000         0.000000     -0.000000      0.000000
      4.33755      4.41200      0.00000         0.000000     -0.000000      0.000000
      8.48474      3.74480      3.13145         0.005325     -0.000041      0.000000
      0.19036      5.07920      9.39435        -0.005325      0.000041      0.000000
      4.14719      0.66720      9.39435         0.005325      0.000041      0.000000
      4.52791      8.15680      3.13145        -0.005325     -0.000041      0.000000
    total drift:                                0.000223      0.000010     -0.000399

  FREE ENERGIE OF THE ION-ELECTRON SYSTEM (eV)
  free  energy   TOTEN  =       -67.46416844 eV

  energy  without entropy=      -67.46416844  energy(sigma->0) =      -67.46416844

 total charge

# of ion       s       p       d       tot
    1        1.503   2.879   0.006   4.388
    2        1.503   2.879   0.006   4.388
    3        1.501   2.900   0.006   4.407
    4        1.501   2.900   0.006   4.407
    5        1.503   2.879   0.006   4.388
    6        1.503   2.879   0.006   4.388
    7        1.501   2.900   0.006   4.407
    8        1.501   2.900   0.006   4.407
    9        1.502   2.892   0.006   4.400
   10        1.502   2.892   0.006   4.400
   11        1.502   2.892   0.006   4.400
   12        1.502   2.892   0.006   4.400
   13        1.525   0.440   9.843  11.808
   14        1.525   0.440   9.843  11.808
   15        1.525   0.440   9.843  11.808
   16        1.525   0.440   9.843  11.808
   17        2.292   4.724   0.020   7.035
   18        2.292   4.724   0.020   7.035
   19        2.292   4.724   0.020   7.035
   20        2.292   4.724   0.020   7.035
tot         33.289  55.338  39.523 128.151

 BZINTS: Fermi energy:  1.227591;176.000000 electrons
         Band energy:***********;  BLOECHL correction:  0.000000