 vasp.5.4.4.18Apr17-6-g9f103f2a35 (build Aug 19 2019 13:40:55) complex

 executed on             LinuxIFC date 2020.04.13  19:16:51

 INCAR:
 POTCAR:    PAW_PBE Pb_d 06Sep2000
 POTCAR:    PAW_PBE I 08Apr2002
 POTCAR:    PAW_PBE Cs_sv 08Apr2002

 POTCAR:    PAW_PBE Pb_d 06Sep2000
   VRHFIN =Pb:

   TITEL  = PAW_PBE Pb_d 06Sep2000
   POMASS =  207.200; ZVAL   =   14.000    mass and valenz
   ENMAX  =  237.835; ENMIN  =  178.376 eV

 POTCAR:    PAW_PBE I 08Apr2002
   VRHFIN =I : s2p5

   TITEL  = PAW_PBE I 08Apr2002
   POMASS =  126.904; ZVAL   =    7.000    mass and valenz
   ENMAX  =  175.647; ENMIN  =  131.735 eV

 POTCAR:    PAW_PBE Cs_sv 08Apr2002
   VRHFIN =Cs: 5s5p6s

   TITEL  = PAW_PBE Cs_sv 08Apr2002
   POMASS =  132.900; ZVAL   =    9.000    mass and valenz
   ENMAX  =  220.318; ENMIN  =  165.238 eV

  PAW_PBE Pb_d 06Sep2000                :
  PAW_PBE I 08Apr2002                   :
  PAW_PBE Cs_sv 08Apr2002               :

 POSCAR: delta-Cesium_Lead_Iodide
  positions in direct lattice
  velocities in cartesian coordinates
 exchange correlation table for  LEXCH =        8
   RHO(1)=    0.500       N(1)  =     2000
   RHO(2)=  100.500       N(2)  =     4000

 ion  position               nearest neighbor table
   1  0.161  0.250  0.439-   9 3.10   7 3.24   7 3.24  14 3.28  14 3.28  13 3.37
   2  0.839  0.750  0.561-  10 3.10   8 3.24   8 3.24  13 3.28  13 3.28  14 3.37
   3  0.339  0.750  0.939-  11 3.10   5 3.24   5 3.24  16 3.28  16 3.28  15 3.37
   4  0.661  0.250  0.061-  12 3.10   6 3.24   6 3.24  15 3.28  15 3.28  16 3.37
   5  0.160  0.250  0.002-   3 3.24   3 3.24
   6  0.840  0.750  0.998-   4 3.24   4 3.24
   7  0.340  0.750  0.502-   1 3.24   1 3.24
   8  0.660  0.250  0.498-   2 3.24   2 3.24
   9  0.300  0.250  0.285-   1 3.10
  10  0.700  0.750  0.715-   2 3.10
  11  0.200  0.750  0.785-   3 3.10
  12  0.800  0.250  0.215-   4 3.10
  13  0.034  0.250  0.614-   2 3.28   2 3.28   1 3.37
  14  0.966  0.750  0.386-   1 3.28   1 3.28   2 3.37
  15  0.466  0.750  0.114-   4 3.28   4 3.28   3 3.37
  16  0.534  0.250  0.886-   3 3.28   3 3.28   4 3.37
  17  0.417  0.250  0.672-
  18  0.583  0.750  0.328-
  19  0.083  0.750  0.172-
  20  0.917  0.250  0.828-

  LATTYP: Found a simple orthorhombic cell.
 ALAT       =     4.7905001640
 B/A-ratio  =     2.1781024798
 C/A-ratio  =     3.7075459914

  Lattice vectors:

 A1 = (   0.0000000000,  -4.7905001640,   0.0000000000)
 A2 = ( -10.4342002869,   0.0000000000,   0.0000000000)
 A3 = (   0.0000000000,   0.0000000000, -17.7609996796)

Analysis of symmetry for initial positions (statically):
 Subroutine PRICEL returns:
 Original cell was already a primitive cell.

 Routine SETGRP: Setting up the symmetry group for a
 simple orthorhombic supercell.

 Subroutine GETGRP returns: Found  8 space group operations
 (whereof  2 operations were pure point group operations)
 out of a pool of  8 trial point group operations.

The static configuration has the point symmetry S_2 .
 The point group associated with its full space group is D_2h.

Analysis of symmetry for dynamics (positions and initial velocities):
 Subroutine PRICEL returns:
 Original cell was already a primitive cell.

[...]

The dynamic configuration has the point symmetry S_2 .
 The point group associated with its full space group is D_2h.

Analysis of structural, dynamic, and magnetic symmetry:
 Subroutine PRICEL returns:
 Original cell was already a primitive cell.

 Routine SETGRP: Setting up the symmetry group for a
 simple orthorhombic supercell.

 Subroutine GETGRP returns: Found  2 space group operations
 (whereof  2 operations were pure point group operations)
 out of a pool of  8 trial point group operations.

The (compounded) configuration has the point symmetry S_2 .

 Subroutine INISYM returns: Found  2 space group operations
 (whereof  2 operations are pure point group operations),
 and found     1 'primitive' translations

 KPOINTS: KPT-Resolved Value to Generate K-Mesh: 0

Automatic generation of k-mesh.
Space group operators:
 irot       det(A)        alpha          n_x          n_y          n_z        tau_x        tau_y        tau_z
    1     1.000000     0.000000     1.000000     0.000000     0.000000     0.000000     0.000000     0.000000
    2    -1.000000     0.000000     1.000000     0.000000     0.000000     0.000000     0.000000     0.000000

 Subroutine IBZKPT returns following result:

 Found      4 irreducible k-points:

 Following reciprocal coordinates:
            Coordinates               Weight
  0.000000  0.000000  0.000000      1.000000
  0.500000  0.000000  0.000000      1.000000
  0.000000  0.333333  0.000000      2.000000
  0.500000  0.333333  0.000000      2.000000

 Following cartesian coordinates:
            Coordinates               Weight
  0.000000  0.000000  0.000000      1.000000
  0.047919  0.000000  0.000000      1.000000
  0.000000  0.069582  0.000000      2.000000
  0.047919  0.069582  0.000000      2.000000

 TETIRR: Found     15 inequivalent tetrahedra from       36

 Subroutine IBZKPT_HF returns following result:

 Found      6 k-points in 1st BZ
 the following      6 k-points will be used (e.g. in the exchange kernel)
 Following reciprocal coordinates:   # in IRBZ
  0.000000  0.000000  0.000000    0.16666667   1 t-inv F
  0.500000  0.000000  0.000000    0.16666667   2 t-inv F
  0.000000  0.333333  0.000000    0.16666667   3 t-inv F
  0.500000  0.333333  0.000000    0.16666667   4 t-inv F
  0.000000 -0.333333  0.000000    0.16666667   3 t-inv F
 -0.500000 -0.333333  0.000000    0.16666667   4 t-inv F

 SYSTEM =  unknown system
 POSCAR =  delta-Cesium_Lead_Iodide

 Startparameter for this run:
   NWRITE =      2    write-flag & timer
   PREC   = normal    normal or accurate (medium, high low for compatibility)
   ISTART =      1    job   : 0-new  1-cont  2-samecut
   ICHARG =     11    charge: 1-file 2-atom 10-const
   ISPIN  =      1    spin polarized calculation?
   LNONCOLLINEAR =      T non collinear calculations
   LSORBIT =      T    spin-orbit coupling
   INIWAV =      1    electr: 0-lowe 1-rand  2-diag
   LASPH  =      F    aspherical Exc in radial PAW
   METAGGA=      F    non-selfconsistent MetaGGA calc.

 Electronic Relaxation 1
   ENCUT  =  520.0 eV  33.07 Ry    5.75 a.u.  18.05  8.29 30.72*2*pi/ulx,y,z
   ENINI  =  520.0     initial cutoff
   ENAUG  =  407.9 eV  augmentation charge cutoff
   NELM   =     60;   NELMIN=  2; NELMDL=  0     # of ELM steps
   EDIFF  = 0.1E-04   stopping-criterion for ELM
   LREAL  =      F    real-space projection
   NLSPLINE    = F    spline interpolate recip. space projectors
   LCOMPAT=      F    compatible to vasp.4.4
   GGA_COMPAT  = F    GGA compatible to vasp.4.4-vasp.4.6
   LMAXPAW     = -100 max onsite density
   LMAXMIX     =    4 max onsite mixed and CHGCAR
   VOSKOWN=      1    Vosko Wilk Nusair interpolation
   ROPT   =    0.00000   0.00000   0.00000
 Ionic relaxation
   EDIFFG = 0.1E-03   stopping-criterion for IOM
   NSW    =      0    number of steps for IOM
   NBLOCK =      1;   KBLOCK =      1    inner block; outer block
   IBRION =     -1    ionic relax: 0-MD 1-quasi-New 2-CG
   NFREE  =      0    steps in history (QN), initial steepest desc. (CG)
   ISIF   =      0    stress and relaxation
   IWAVPR =     10    prediction:  0-non 1-charg 2-wave 3-comb
   ISYM   =      3    0-nonsym 1-usesym 2-fastsym
   LCORR  =      T    Harris-Foulkes like correction to forces

   POTIM  = 0.1000    time-step for ionic-motion
   TEIN   =    0.0    initial temperature
   TEBEG  =    0.0;   TEEND  =   0.0 temperature during run
   SMASS  =  -3.00    Nose mass-parameter (am)
   estimated Nose-frequenzy (Omega)   =  0.10E-29 period in steps =****** mass=  -0.249E-26a.u.
   SCALEE = 1.0000    scale energy and forces
   NPACO  =    256;   APACO  = 16.0  distance and # of slots for P.C.
   PSTRESS=    0.0 pullay stress

  Mass of Ions in am
   POMASS = 207.20126.90132.90
  Ionic Valenz
   ZVAL   =  14.00  7.00  9.00
  Atomic Wigner-Seitz radii
  virtual crystal weights
   VCA    =   1.00  1.00  1.00
   NELECT =     176.0000    total number of electrons
   NUPDOWN=      -1.0000    fix difference up-down

 DOS related values:
   EMIN   =  10.00;   EMAX   =-10.00  energy-range for DOS
   EFERMI =   0.00
   ISMEAR =    -5;   SIGMA  =   0.20  broadening in eV -4-tet -1-fermi 0-gaus

 Electronic relaxation 2 (details)
   IALGO  =     58    algorithm
   LDIAG  =      T    sub-space diagonalisation (order eigenvalues)
   LSUBROT=      F    optimize rotation matrix (better conditioning)
   TURBO    =      0    0=normal 1=particle mesh
   IRESTART =      0    0=no restart 2=restart with 2 vectors
   NREBOOT  =      0    no. of reboots
   NMIN     =      0    reboot dimension
   EREF     =   0.00    reference energy to select bands
   IMIX   =      4    mixing-type and parameters
     AMIX     =   0.40;   BMIX     =  1.00
     AMIX_MAG =   1.60;   BMIX_MAG =  1.00
     AMIN     =   0.10
     WC   =   100.;   INIMIX=   1;  MIXPRE=   1;  MAXMIX= -45

 Intra band minimization:
   WEIMIN = 0.0000     energy-eigenvalue tresh-hold
   EBREAK =  0.10E-07  absolut break condition
   DEPER  =   0.30     relativ break condition

   TIME   =   0.40     timestep for ELM

  volume/ion in A,a.u.               =      44.39       299.55
  Fermi-wavevector in a.u.,A,eV,Ry     =   0.954575  1.803885 12.397803  0.911213
  Thomas-Fermi vector in A             =   2.083334

 Write flags
   LWAVE        =      T    write WAVECAR
   LDOWNSAMPLE  =      F    k-point downsampling of WAVECAR
   LCHARG       =      T    write CHGCAR
   LVTOT        =      F    write LOCPOT, total local potential
   LVHAR        =      F    write LOCPOT, Hartree potential only
   LELF         =      F    write electronic localiz. function (ELF)
   LORBIT       =     10    0 simple, 1 ext, 2 COOP (PROOUT), +10 PAW based schemes

 Dipole corrections
   LMONO  =      F    monopole corrections only (constant potential shift)
   LDIPOL =      F    correct potential (dipole corrections)
   IDIPOL =      0    1-x, 2-y, 3-z, 4-all directions
   EPSILON=  1.0000000 bulk dielectric constant

 Exchange correlation treatment:
   GGA     =    --    GGA type
   VOSKOWN=      1    Vosko Wilk Nusair interpolation
   EXXOEP  =     0    0=HF, 1=EXX-LHF (local Hartree Fock) 2=EXX OEP
   LHFCALC =     T    Hartree Fock is set to
   LSYMGRAD=     F    symmetrize gradient (conserves proper symmetry)
   PRECFOCK=normal    Normal, Fast or Accurate (Low or Medium for compatibility)
   LRHFCALC=     F    long range Hartree Fock
   LRSCOR  =     F    long range correlation only (use DFT for short range part)
   LTHOMAS =     F    Thomas Fermi screening in HF
   LMODELHF=     F    short range full HF, long range fraction AEXX
   ENCUT4O =  -1.0   cutoff for four orbital integrals eV
   LMAXFOCK=     4    L truncation for augmentation on plane wave grid
   LMAXFOCKAE=  -1    L truncation for all-electron charge restoration on plane wave grid
   NMAXFOCKAE=   1    number of basis functions for all-electron charge restoration
   LFOCKAEDFT=     F  apply the AE augmentation even for DFT
   NKREDX  =     1    reduce k-point grid by
[...]
       1 -88.9628       2 -88.9628       3 -88.9628       4 -88.9628       5 -89.0767
       6 -89.0767       7 -89.0767       8 -89.0767       9 -88.8558      10 -88.8559
      11 -88.8559      12 -88.8558      13 -89.2282      14 -89.2282      15 -89.2282
      16 -89.2282      17 -44.9625      18 -44.9625      19 -44.9625      20 -44.9625

 E-fermi :   1.4826     XC(G=0):  -6.6250     alpha+bet : -8.3336

 k-point     1 :       0.0000    0.0000    0.0000
  band No.  band energies     occupation
      1     -20.6225      1.00000
      2     -20.6225      1.00000
      3     -20.6220      1.00000
      4     -20.6220      1.00000
      5     -20.6204      1.00000
      6     -20.6204      1.00000
      7     -20.6199      1.00000
      8     -20.6199      1.00000
      9     -17.8483      1.00000
     10     -17.8483      1.00000
     11     -17.8483      1.00000
     12     -17.8483      1.00000
     13     -17.8477      1.00000
     14     -17.8477      1.00000
     15     -17.8476      1.00000
     16     -17.8476      1.00000
     17     -17.8340      1.00000
     18     -17.8340      1.00000
     19     -17.8340      1.00000
     20     -17.8340      1.00000
     21     -17.8328      1.00000
     22     -17.8328      1.00000
     23     -17.8328      1.00000
     24     -17.8328      1.00000
     25     -15.1732      1.00000
     26     -15.1732      1.00000
     27     -15.1730      1.00000
     28     -15.1730      1.00000
     29     -15.1668      1.00000
     30     -15.1668      1.00000
     31     -15.1667      1.00000
     32     -15.1667      1.00000
     33     -15.1652      1.00000
     34     -15.1652      1.00000
     35     -15.1651      1.00000
     36     -15.1651      1.00000
     37     -15.1625      1.00000
     38     -15.1625      1.00000
     39     -15.1624      1.00000
     40     -15.1624      1.00000
     41     -15.1352      1.00000
     42     -15.1352      1.00000
     43     -15.1352      1.00000
     44     -15.1352      1.00000
     45     -15.1320      1.00000
     46     -15.1320      1.00000
     47     -15.1320      1.00000
     48     -15.1320      1.00000
     49     -11.5558      1.00000
     50     -11.5557      1.00000
     51     -11.5216      1.00000
     52     -11.5216      1.00000
     53     -11.2110      1.00000
     54     -11.2109      1.00000
     55     -11.0953      1.00000
     56     -11.0952      1.00000
     57     -11.0615      1.00000
     58     -11.0614      1.00000
     59     -11.0587      1.00000
     60     -11.0586      1.00000
[...]
    226       8.6461      0.00000
    227       8.7031      0.00000
    228       8.7033      0.00000
    229       8.7828      0.00000
    230       8.7834      0.00000
    231       8.9590      0.00000
    232       9.0312      0.00000
    233       9.0500      0.00000
    234       9.0516      0.00000
    235       9.0553      0.00000
    236       9.1315      0.00000
    237       9.1542      0.00000
    238       9.2155      0.00000
    239       9.2371      0.00000
    240       9.2750      0.00000

[...]

 k-point     4 :       0.5000    0.3333    0.0000
  band No.  band energies     occupation
      1     -20.6100      1.00000
      2     -20.6100      1.00000
      3     -20.6100      1.00000
      4     -20.6100      1.00000
      5     -20.6097      1.00000
      6     -20.6097      1.00000
      7     -20.6097      1.00000
      8     -20.6097      1.00000
      9     -17.8512      1.00000
     10     -17.8512      1.00000
     11     -17.8512      1.00000
     12     -17.8512      1.00000
     13     -17.8507      1.00000
     14     -17.8507      1.00000
     15     -17.8507      1.00000
     16     -17.8507      1.00000
     17     -17.8318      1.00000
     18     -17.8318      1.00000
     19     -17.8317      1.00000
     20     -17.8317      1.00000
     21     -17.8311      1.00000
     22     -17.8311      1.00000
     23     -17.8310      1.00000
     24     -17.8310      1.00000
     25     -15.1819      1.00000
     26     -15.1819      1.00000
     27     -15.1818      1.00000
     28     -15.1818      1.00000
     29     -15.1806      1.00000
     30     -15.1806      1.00000
     31     -15.1806      1.00000
     32     -15.1806      1.00000
     33     -15.1633      1.00000
     34     -15.1633      1.00000
     35     -15.1633      1.00000
     36     -15.1633      1.00000
     37     -15.1586      1.00000
     38     -15.1585      1.00000
     39     -15.1585      1.00000
     40     -15.1585      1.00000
     41     -15.1324      1.00000
     42     -15.1323      1.00000
     43     -15.1323      1.00000
     44     -15.1323      1.00000
     45     -15.1312      1.00000
     46     -15.1312      1.00000
     47     -15.1311      1.00000
     48     -15.1311      1.00000
     49     -11.2465      1.00000
     50     -11.2464      1.00000
     51     -11.2463      1.00000
     52     -11.2463      1.00000
     53     -11.0829      1.00000
     54     -11.0828      1.00000
     55     -11.0817      1.00000
     56     -11.0816      1.00000
     57     -10.9704      1.00000
     58     -10.9703      1.00000
     59     -10.9693      1.00000
     60     -10.9693      1.00000
[...]
    226       8.5551      0.00000
    227       8.5575      0.00000
    228       8.5578      0.00000
    229       8.7514      0.00000
    230       8.7525      0.00000
    231       8.7564      0.00000
    232       8.7592      0.00000
    233       8.9785      0.00000
    234       8.9850      0.00000
    235       9.0101      0.00000
    236       9.0746      0.00000
    237       9.0889      0.00000
    238       9.1063      0.00000
    239       9.2573      0.00000
    240       9.2751      0.00000

 soft charge-density along one line, spin component           1
         0         1         2         3         4         5         6         7         8         9
 total charge-density along one line

[...]

 soft charge-density along one line, spin component           4
         0         1         2         3         4         5         6         7         8         9
 total charge-density along one line

------------------------ aborting loop because EDIFF is reached ----------------------------------------

 total charge

# of ion       s       p       d       tot
    1        1.526   0.459   9.843  11.828
    2        1.526   0.459   9.843  11.828
    3        1.526   0.459   9.843  11.828
    4        1.526   0.459   9.843  11.828
    5        1.505   2.880   0.007   4.392
    6        1.505   2.880   0.007   4.392
    7        1.505   2.880   0.007   4.392
    8        1.505   2.880   0.007   4.392
    9        1.502   2.897   0.005   4.404
   10        1.502   2.897   0.005   4.404
   11        1.502   2.897   0.005   4.404
   12        1.502   2.897   0.005   4.404
   13        1.508   2.867   0.008   4.383
   14        1.508   2.867   0.008   4.383
   15        1.508   2.867   0.008   4.383
   16        1.508   2.867   0.008   4.383
   17        2.291   4.720   0.025   7.035
   18        2.291   4.720   0.025   7.035
   19        2.291   4.720   0.025   7.035
   20        2.291   4.720   0.025   7.035
tot         33.326  55.294  39.553 128.173

 magnetization (x)

[...]

 magnetization (y)

[...]

 magnetization (z)

[...]

 VOLUME and BASIS-vectors are now :
  energy-cutoff  :      450.00
  volume of cell :      887.78
      direct lattice vectors                 reciprocal lattice vectors
    10.434200287  0.000000000  0.000000000     0.095838682  0.000000000  0.000000000
     0.000000000  4.790500164  0.000000000     0.000000000  0.208746470  0.000000000
     0.000000000  0.000000000 17.760999680     0.000000000  0.000000000  0.056303137

  length of vectors
    10.434200287  4.790500164 17.760999680     0.095838682  0.208746470  0.056303137

 FORCES acting on ions
    electron-ion (+dipol)            ewald-force                    non-local-force                 convergence-correction
   -.628E+02 -.124E-04 0.529E+02   0.607E+02 -.183E-04 -.506E+02   0.196E+01 -.622E-04 -.220E+01   -.192E-01 0.462E-04 0.232E-01
   0.628E+02 0.934E-04 -.529E+02   -.607E+02 0.183E-04 0.506E+02   -.196E+01 0.622E-04 0.220E+01   0.179E-01 -.260E-03 -.244E-01
   0.628E+02 0.884E-04 0.529E+02   -.607E+02 0.183E-04 -.506E+02   -.196E+01 0.651E-04 -.220E+01   0.189E-01 -.259E-03 0.266E-01
   -.628E+02 -.946E-05 -.529E+02   0.607E+02 -.183E-04 0.506E+02   0.196E+01 -.651E-04 0.220E+01   -.190E-01 0.460E-04 -.234E-01
   0.922E+02 0.149E-04 -.480E+02   -.940E+02 -.117E-04 0.486E+02   0.173E+01 0.206E-05 -.597E+00   -.563E-02 0.168E-04 0.542E-02
   -.922E+02 0.201E-04 0.480E+02   0.940E+02 0.117E-04 -.486E+02   -.173E+01 -.206E-05 0.597E+00   0.576E-02 -.195E-04 -.521E-02
   -.922E+02 0.110E-04 -.480E+02   0.940E+02 0.117E-04 0.486E+02   -.173E+01 0.157E-05 -.597E+00   0.573E-02 -.168E-04 0.537E-02
   0.922E+02 0.261E-04 0.480E+02   -.940E+02 -.117E-04 -.486E+02   0.173E+01 -.157E-05 0.597E+00   -.566E-02 0.151E-04 -.530E-02
   -.397E+02 0.125E-04 0.766E+02   0.405E+02 -.489E-05 -.781E+02   -.823E+00 0.439E-05 0.152E+01   -.166E-02 0.813E-05 0.218E-03
   0.397E+02 0.283E-04 -.766E+02   -.405E+02 0.489E-05 0.781E+02   0.823E+00 -.439E-05 -.152E+01   0.160E-02 -.191E-04 -.281E-03
   0.397E+02 0.203E-04 0.766E+02   -.405E+02 0.489E-05 -.781E+02   0.823E+00 -.178E-05 0.152E+01   0.158E-02 -.189E-04 0.140E-03
   -.397E+02 0.169E-04 -.766E+02   0.405E+02 -.489E-05 0.781E+02   -.823E+00 0.178E-05 -.152E+01   -.165E-02 0.758E-05 -.304E-03
   -.649E+02 0.686E-05 -.121E+03   0.662E+02 -.969E-05 0.123E+03   -.129E+01 0.408E-05 -.152E+01   0.436E-02 0.145E-04 -.147E-02
   0.649E+02 0.260E-04 0.121E+03   -.662E+02 0.969E-05 -.123E+03   0.129E+01 -.408E-05 0.152E+01   -.436E-02 -.204E-04 0.146E-02
   0.649E+02 0.187E-04 -.121E+03   -.662E+02 0.969E-05 0.123E+03   0.129E+01 -.164E-06 -.152E+01   -.443E-02 -.203E-04 -.139E-02
   -.649E+02 0.211E-04 0.121E+03   0.662E+02 -.969E-05 -.123E+03   -.129E+01 0.164E-06 0.152E+01   0.441E-02 0.146E-04 0.151E-02
   -.186E+00 0.153E-04 -.121E+02   0.290E+00 -.548E-05 0.123E+02   -.993E-01 -.450E-06 -.130E+00   -.471E-02 0.882E-05 -.977E-02
   0.186E+00 0.271E-04 0.121E+02   -.290E+00 0.548E-05 -.123E+02   0.993E-01 0.450E-06 0.130E+00   0.473E-02 -.319E-04 0.961E-02
   0.186E+00 0.258E-04 -.121E+02   -.290E+00 0.548E-05 0.123E+02   0.993E-01 -.338E-06 -.130E+00   0.484E-02 -.325E-04 -.971E-02
   -.186E+00 0.148E-04 0.121E+02   0.290E+00 -.548E-05 -.123E+02   -.993E-01 0.338E-06 0.130E+00   -.478E-02 0.918E-05 0.972E-02
   0.312E-03 0.466E-03 -.142E-02   0.422E-14 0.171E-14 0.462E-13   0.000E+00 0.000E+00 0.000E+00   -.120E-02 -.512E-03 0.202E-02

 POSITION                                       TOTAL-FORCE (eV/Angst)
      1.67927      1.19763      7.79733         0.048113      0.000018     -0.067345
      8.75493      3.59288      9.96367        -0.048113     -0.000018      0.067345
      3.53783      3.59288     16.67783        -0.048044     -0.000020     -0.067202
      6.89637      1.19763      1.08317         0.048044      0.000020      0.067202
      1.66861      1.19763      0.03521         0.065198      0.000006     -0.034042
      8.76559      3.59288     17.72579        -0.065198     -0.000006      0.034042
      3.54849      3.59288      8.91571        -0.065200     -0.000010     -0.034023
      6.88571      1.19763      8.84529         0.065200      0.000010      0.034023
      3.13268      1.19763      5.06151        -0.053810      0.000006      0.098310
      7.30152      3.59288     12.69949         0.053810     -0.000006     -0.098310
      2.08442      3.59288     13.94201         0.053808     -0.000008      0.098310
      8.34978      1.19763      3.81899        -0.053808      0.000008     -0.098310
      0.35353      1.19763     10.90043        -0.055446      0.000003     -0.044177
     10.08067      3.59288      6.86057         0.055446     -0.000003      0.044177
      4.86357      3.59288      2.01993         0.055421     -0.000009     -0.044166
      5.57063      1.19763     15.74107        -0.055421      0.000009      0.044166
      4.35243      1.19763     11.93416         0.000664      0.000009      0.002298
      6.08177      3.59288      5.82684        -0.000664     -0.000009     -0.002298
      0.86467      3.59288      3.05366        -0.000628     -0.000010      0.002265
      9.56953      1.19763     14.70734         0.000628      0.000010     -0.002265
    total drift:                               -0.000884     -0.000046      0.000603

  FREE ENERGIE OF THE ION-ELECTRON SYSTEM (eV)
  free  energy   TOTEN  =       -71.00169237 eV

  energy  without entropy=      -71.00169237  energy(sigma->0) =      -71.00169237

 writing wavefunctions

 Spin-Orbit-Coupling matrix elements

 Ion:    1  E_soc:     -0.7235280
 l=   1
     0.0000000    -0.0559908    -0.0536297
    -0.0559908     0.0000000    -0.0570180
    -0.0536297    -0.0570180     0.0000000
 l=   2
     0.0000000    -0.0130212     0.0000000    -0.0130625    -0.0520314
    -0.0130212     0.0000000    -0.0390130    -0.0130071    -0.0129809
     0.0000000    -0.0390130     0.0000000    -0.0390514     0.0000000
    -0.0130625    -0.0130071    -0.0390514     0.0000000    -0.0129581
    -0.0520314    -0.0129809     0.0000000    -0.0129581     0.0000000
 l=   3
     0.0000000     0.0000000     0.0000000     0.0000000     0.0000000     0.0000000     0.0000000
     0.0000000     0.0000000     0.0000000     0.0000000     0.0000000     0.0000000     0.0000000
     0.0000000     0.0000000     0.0000000     0.0000000     0.0000000     0.0000000     0.0000000
     0.0000000     0.0000000     0.0000000     0.0000000     0.0000000     0.0000000     0.0000000
     0.0000000     0.0000000     0.0000000     0.0000000     0.0000000     0.0000000     0.0000000
     0.0000000     0.0000000     0.0000000     0.0000000     0.0000000     0.0000000     0.0000000
     0.0000000     0.0000000     0.0000000     0.0000000     0.0000000     0.0000000     0.0000000

[...]

 Ion:   20  E_soc:     -0.2770861
 l=   1
     0.0000000    -0.0461510    -0.0462030
    -0.0461510     0.0000000    -0.0460258
    -0.0462030    -0.0460258     0.0000000
 l=   2
     0.0000000    -0.0000170     0.0000000    -0.0000141    -0.0000466
    -0.0000170     0.0000000    -0.0000326    -0.0000126    -0.0000074
     0.0000000    -0.0000326     0.0000000    -0.0000255     0.0000000
    -0.0000141    -0.0000126    -0.0000255     0.0000000    -0.0000075
    -0.0000466    -0.0000074     0.0000000    -0.0000075     0.0000000
 l=   3
     0.0000000     0.0000000     0.0000000     0.0000000     0.0000000     0.0000000     0.0000000
     0.0000000     0.0000000     0.0000000     0.0000000     0.0000000     0.0000000     0.0000000
     0.0000000     0.0000000     0.0000000     0.0000000     0.0000000     0.0000000     0.0000000
     0.0000000     0.0000000     0.0000000     0.0000000     0.0000000     0.0000000     0.0000000
     0.0000000     0.0000000     0.0000000     0.0000000     0.0000000     0.0000000     0.0000000
     0.0000000     0.0000000     0.0000000     0.0000000     0.0000000     0.0000000     0.0000000
     0.0000000     0.0000000     0.0000000     0.0000000     0.0000000     0.0000000     0.0000000

 total charge

[...]

 magnetization (x)

[...]

 magnetization (y)

[...]

 magnetization (z)

# of ion       s       p       d       tot
    1        0.000  -0.000  -0.000   0.000
    2       -0.000  -0.000   0.000  -0.001
    3       -0.000  -0.000   0.000  -0.001
    4        0.000  -0.000  -0.000   0.000
    5        0.000  -0.001  -0.000  -0.000
    6       -0.000   0.001   0.000   0.001
    7       -0.000   0.001   0.000   0.001
    8        0.000  -0.001  -0.000  -0.000
    9       -0.000   0.001   0.000   0.001
   10        0.000  -0.000  -0.000  -0.000
   11        0.000  -0.000  -0.000  -0.000
   12       -0.000   0.001   0.000   0.001
   13       -0.000   0.000   0.000   0.000
   14        0.000  -0.000  -0.000  -0.000
   15        0.000  -0.000  -0.000  -0.000
   16       -0.000   0.000   0.000   0.000
   17        0.000  -0.000  -0.000  -0.000
   18        0.000   0.000   0.000   0.000
   19        0.000   0.000   0.000   0.000
   20        0.000  -0.000  -0.000  -0.000
tot          0.000   0.000  -0.000   0.001

 BZINTS: Fermi energy:  1.482406;176.000000 electrons
         Band energy:***********;  BLOECHL correction:  0.000000
 BZINTS: Fermi energy:  1.482406;176.000000 electrons
         Band energy:***********;  BLOECHL correction:  0.000000
 BZINTS: Fermi energy:  1.482406;176.000000 electrons
         Band energy:***********;  BLOECHL correction:  0.000000
 BZINTS: Fermi energy:  1.482406;176.000000 electrons
         Band energy:***********;  BLOECHL correction:  0.000000