 vasp.5.4.4.18Apr17-6-g9f103f2a35 (build Aug 19 2019 13:40:55) complex

 executed on             LinuxIFC date 2020.04.17  08:33:21

 INCAR:
 POTCAR:    PAW_PBE Pb_d 06Sep2000
 POTCAR:    PAW_PBE I 08Apr2002
 POTCAR:    PAW_PBE Cs_sv 08Apr2002

 POTCAR:    PAW_PBE Pb_d 06Sep2000
   VRHFIN =Pb:

   TITEL  = PAW_PBE Pb_d 06Sep2000
   POMASS =  207.200; ZVAL   =   14.000    mass and valenz
   ENMAX  =  237.835; ENMIN  =  178.376 eV

 POTCAR:    PAW_PBE I 08Apr2002
   VRHFIN =I : s2p5

   TITEL  = PAW_PBE I 08Apr2002
   POMASS =  126.904; ZVAL   =    7.000    mass and valenz
   ENMAX  =  175.647; ENMIN  =  131.735 eV

 POTCAR:    PAW_PBE Cs_sv 08Apr2002
   VRHFIN =Cs: 5s5p6s

   TITEL  = PAW_PBE Cs_sv 08Apr2002
   POMASS =  132.900; ZVAL   =    9.000    mass and valenz
   ENMAX  =  220.318; ENMIN  =  165.238 eV

  PAW_PBE Pb_d 06Sep2000                :
  PAW_PBE I 08Apr2002                   :
  PAW_PBE Cs_sv 08Apr2002               :

 POSCAR: delta-Cesium_Lead_Iodide
  positions in direct lattice
  velocities in cartesian coordinates
 exchange correlation table for  LEXCH =        8
   RHO(1)=    0.500       N(1)  =     2000
   RHO(2)=  100.500       N(2)  =     4000

 ion  position               nearest neighbor table
   1  0.161  0.250  0.439-   9 3.10   7 3.24   7 3.24  14 3.28  14 3.28  13 3.37
   2  0.839  0.750  0.561-  10 3.10   8 3.24   8 3.24  13 3.28  13 3.28  14 3.37
   3  0.339  0.750  0.939-  11 3.10   5 3.24   5 3.24  16 3.28  16 3.28  15 3.37
   4  0.661  0.250  0.061-  12 3.10   6 3.24   6 3.24  15 3.28  15 3.28  16 3.37
   5  0.160  0.250  0.002-   3 3.24   3 3.24
   6  0.840  0.750  0.998-   4 3.24   4 3.24
   7  0.340  0.750  0.502-   1 3.24   1 3.24
   8  0.660  0.250  0.498-   2 3.24   2 3.24
   9  0.300  0.250  0.285-   1 3.10
  10  0.700  0.750  0.715-   2 3.10
  11  0.200  0.750  0.785-   3 3.10
  12  0.800  0.250  0.215-   4 3.10
  13  0.034  0.250  0.614-   2 3.28   2 3.28   1 3.37
  14  0.966  0.750  0.386-   1 3.28   1 3.28   2 3.37
  15  0.466  0.750  0.114-   4 3.28   4 3.28   3 3.37
  16  0.534  0.250  0.886-   3 3.28   3 3.28   4 3.37
  17  0.417  0.250  0.672-
  18  0.583  0.750  0.328-
  19  0.083  0.750  0.172-
  20  0.917  0.250  0.828-

  LATTYP: Found a simple orthorhombic cell.
 ALAT       =     4.7905001640
 B/A-ratio  =     2.1781024798
 C/A-ratio  =     3.7075459914

  Lattice vectors:

 A1 = (   0.0000000000,  -4.7905001640,   0.0000000000)
 A2 = ( -10.4342002869,   0.0000000000,   0.0000000000)
 A3 = (   0.0000000000,   0.0000000000, -17.7609996796)

Analysis of symmetry for initial positions (statically):
 Subroutine PRICEL returns:
 Original cell was already a primitive cell.

 Routine SETGRP: Setting up the symmetry group for a
 simple orthorhombic supercell.

 Subroutine GETGRP returns: Found  8 space group operations
 (whereof  2 operations were pure point group operations)
 out of a pool of  8 trial point group operations.

The static configuration has the point symmetry S_2 .
 The point group associated with its full space group is D_2h.

Analysis of symmetry for dynamics (positions and initial velocities):
 Subroutine PRICEL returns:
 Original cell was already a primitive cell.

[...]

The dynamic configuration has the point symmetry S_2 .
 The point group associated with its full space group is D_2h.

Analysis of structural, dynamic, and magnetic symmetry:
 Subroutine PRICEL returns:
 Original cell was already a primitive cell.

 Routine SETGRP: Setting up the symmetry group for a
 simple orthorhombic supercell.

 Subroutine GETGRP returns: Found  2 space group operations
 (whereof  2 operations were pure point group operations)
 out of a pool of  8 trial point group operations.

The (compounded) configuration has the point symmetry S_2 .

 Subroutine INISYM returns: Found  2 space group operations
 (whereof  2 operations are pure point group operations),
 and found     1 'primitive' translations

 KPOINTS: K-Path Generated by VASPKIT.
  interpolating k-points between supplied coordinates
  k-points in reciprocal lattice
Space group operators:
 irot       det(A)        alpha          n_x          n_y          n_z        tau_x        tau_y        tau_z
    1     1.000000     0.000000     1.000000     0.000000     0.000000     0.000000     0.000000     0.000000
    2    -1.000000     0.000000     1.000000     0.000000     0.000000     0.000000     0.000000     0.000000

 SYSTEM =  unknown system
 POSCAR =  delta-Cesium_Lead_Iodide

 Startparameter for this run:
   NWRITE =      2    write-flag & timer
   PREC   = normal    normal or accurate (medium, high low for compatibility)
   ISTART =      1    job   : 0-new  1-cont  2-samecut
   ICHARG =     11    charge: 1-file 2-atom 10-const
   ISPIN  =      1    spin polarized calculation?
   LNONCOLLINEAR =      T non collinear calculations
   LSORBIT =      T    spin-orbit coupling
   INIWAV =      1    electr: 0-lowe 1-rand  2-diag
   LASPH  =      F    aspherical Exc in radial PAW
   METAGGA=      F    non-selfconsistent MetaGGA calc.

 Electronic Relaxation 1
   ENCUT  =  520.0 eV  33.07 Ry    5.75 a.u.  18.05  8.29 30.72*2*pi/ulx,y,z
   ENINI  =  520.0     initial cutoff
   ENAUG  =  407.9 eV  augmentation charge cutoff
   NELM   =     60;   NELMIN=  2; NELMDL=  0     # of ELM steps
   EDIFF  = 0.1E-04   stopping-criterion for ELM
   LREAL  =      F    real-space projection
   NLSPLINE    = F    spline interpolate recip. space projectors
   LCOMPAT=      F    compatible to vasp.4.4
   GGA_COMPAT  = F    GGA compatible to vasp.4.4-vasp.4.6
   LMAXPAW     = -100 max onsite density
   LMAXMIX     =    4 max onsite mixed and CHGCAR
   VOSKOWN=      1    Vosko Wilk Nusair interpolation
   ROPT   =    0.00000   0.00000   0.00000
 Ionic relaxation
   EDIFFG = 0.1E-03   stopping-criterion for IOM
   NSW    =      0    number of steps for IOM
   NBLOCK =      1;   KBLOCK =      1    inner block; outer block
   IBRION =     -1    ionic relax: 0-MD 1-quasi-New 2-CG
   NFREE  =      0    steps in history (QN), initial steepest desc. (CG)
   ISIF   =      2    stress and relaxation
   IWAVPR =     10    prediction:  0-non 1-charg 2-wave 3-comb
   ISYM   =      2    0-nonsym 1-usesym 2-fastsym
   LCORR  =      T    Harris-Foulkes like correction to forces

   POTIM  = 0.1000    time-step for ionic-motion
   TEIN   =    0.0    initial temperature
   TEBEG  =    0.0;   TEEND  =   0.0 temperature during run
   SMASS  =  -3.00    Nose mass-parameter (am)
   estimated Nose-frequenzy (Omega)   =  0.10E-29 period in steps =****** mass=  -0.249E-26a.u.
   SCALEE = 1.0000    scale energy and forces
   NPACO  =    256;   APACO  = 16.0  distance and # of slots for P.C.
   PSTRESS=    0.0 pullay stress

  Mass of Ions in am
   POMASS = 207.20126.90132.90
  Ionic Valenz
   ZVAL   =  14.00  7.00  9.00
  Atomic Wigner-Seitz radii
  virtual crystal weights
   VCA    =   1.00  1.00  1.00
   NELECT =     176.0000    total number of electrons
   NUPDOWN=      -1.0000    fix difference up-down

 DOS related values:
   EMIN   =  10.00;   EMAX   =-10.00  energy-range for DOS
   EFERMI =   0.00
   ISMEAR =     1;   SIGMA  =   0.20  broadening in eV -4-tet -1-fermi 0-gaus

 Electronic relaxation 2 (details)
   IALGO  =     38    algorithm
   LDIAG  =      T    sub-space diagonalisation (order eigenvalues)
   LSUBROT=      F    optimize rotation matrix (better conditioning)
   TURBO    =      0    0=normal 1=particle mesh
   IRESTART =      0    0=no restart 2=restart with 2 vectors
   NREBOOT  =      0    no. of reboots
   NMIN     =      0    reboot dimension
   EREF     =   0.00    reference energy to select bands
   IMIX   =      4    mixing-type and parameters
     AMIX     =   0.40;   BMIX     =  1.00
     AMIX_MAG =   1.60;   BMIX_MAG =  1.00
     AMIN     =   0.10
     WC   =   100.;   INIMIX=   1;  MIXPRE=   1;  MAXMIX= -45

 Intra band minimization:
   WEIMIN = 0.0000     energy-eigenvalue tresh-hold
   EBREAK =  0.12E-07  absolut break condition
   DEPER  =   0.30     relativ break condition

   TIME   =   0.40     timestep for ELM

  volume/ion in A,a.u.               =      44.39       299.55
  Fermi-wavevector in a.u.,A,eV,Ry     =   0.954575  1.803885 12.397803  0.911213
  Thomas-Fermi vector in A             =   2.083334

 Write flags
   LWAVE        =      F    write WAVECAR
   LDOWNSAMPLE  =      F    k-point downsampling of WAVECAR
   LCHARG       =      F    write CHGCAR
   LVTOT        =      F    write LOCPOT, total local potential
   LVHAR        =      F    write LOCPOT, Hartree potential only
   LELF         =      F    write electronic localiz. function (ELF)
   LORBIT       =     10    0 simple, 1 ext, 2 COOP (PROOUT), +10 PAW based schemes

 Dipole corrections
   LMONO  =      F    monopole corrections only (constant potential shift)
   LDIPOL =      F    correct potential (dipole corrections)
   IDIPOL =      0    1-x, 2-y, 3-z, 4-all directions
   EPSILON=  1.0000000 bulk dielectric constant

 Exchange correlation treatment:
   GGA     =    --    GGA type
   VOSKOWN=      1    Vosko Wilk Nusair interpolation
   LHFCALC =     F    Hartree Fock is set to
   LHFONE  =     F    Hartree Fock one center treatment
   AEXX    =    0.0000 exact exchange contribution

 Linear response parameters
   LEPSILON=     F    determine dielectric tensor
   LRPA    =     F    only Hartree local field effects (RPA)
   LNABLA  =     F    use nabla operator in PAW spheres
   LVEL    =     F    velocity operator in full k-point grid
   LINTERFAST=   F  fast interpolation
   KINTER  =     0    interpolate to denser k-point grid
   CSHIFT  =0.1000    complex shift for real part using Kramers Kronig
   OMEGAMAX=  -1.0    maximum frequency
   DEG_THRESHOLD= 0.2000000E-02 threshold for treating states as degnerate
   RTIME   =   -0.100 relaxation time in fs
  (WPLASMAI=    0.000 imaginary part of plasma frequency in eV, 0.658/RTIME)
   DFIELD  = 0.0000000 0.0000000 0.0000000 field for delta impulse in time

 Orbital magnetization related:
   ORBITALMAG=     F  switch on orbital magnetization
   LCHIMAG   =     F  perturbation theory with respect to B field
   DQ        =  0.001000  dq finite difference perturbation B field
   LLRAUG    =     F  two centre corrections for induced B field

 Static calculation
 charge density and potential remain constant during run
 non collinear spin polarized calculation
 Variant of blocked Davidson
 Davidson routine will perform the subspace rotation
 perform sub-space diagonalisation
    after iterative eigenvector-optimisation
 no mixing
 using additional bands          128
 reciprocal scheme for non local part
 use partial core corrections
 calculate Harris-corrections to forces
   (improved forces if not selfconsistent)
 use gradient corrections
 WARNING: stress and forces are not correct
  (second derivative of E(xc) not defined)
 use of overlap-Matrix (Vanderbilt PP)
 Methfessel and Paxton  Order N= 1 SIGMA  =   0.20

  energy-cutoff  :      450.00
  volume of cell :      887.78
      direct lattice vectors                 reciprocal lattice vectors
    10.434200287  0.000000000  0.000000000     0.095838682  0.000000000  0.000000000
[...]
  -V(xc)+E(xc)   XCENC  =        36.47995930
  PAW double counting   =     12727.87733588   -12316.80243530
  entropy T*S    EENTRO =         0.03720188
  eigenvalues    EBANDS =     -1059.20014680
  atomic energy  EATOM  =     12659.57197118
  Solvation  Ediel_sol  =         0.00000000
  free energy    TOTEN  =       -60.18275278 eV

  energy without entropy =      -60.21995466  energy(sigma->0) =      -60.19515341

 average (electrostatic) potential at core
  the test charge radii are     1.1541  1.1875  1.1312
  (the norm of the test charge is              1.0000)
       1 -94.5540       2 -94.5540       3 -94.5540       4 -94.5540       5 -92.7229
       6 -92.7229       7 -92.7229       8 -92.7229       9 -92.5044      10 -92.5044
      11 -92.5044      12 -92.5044      13 -92.8627      14 -92.8627      15 -92.8627
      16 -92.8627      17 -48.2066      18 -48.2066      19 -48.2066      20 -48.2066

 E-fermi :   2.1338     XC(G=0):  -7.9115     alpha+bet : -8.3336

 k-point     1 :       0.0000    0.0000    0.0000
  band No.  band energies     occupation
      1     -18.4873      1.00000
      2     -18.4873      1.00000
      3     -18.4869      1.00000
      4     -18.4869      1.00000
      5     -18.4855      1.00000
      6     -18.4855      1.00000
      7     -18.4852      1.00000
      8     -18.4852      1.00000
      9     -15.5525      1.00000
     10     -15.5525      1.00000
     11     -15.5525      1.00000
     12     -15.5525      1.00000
     13     -15.5518      1.00000
     14     -15.5518      1.00000
     15     -15.5518      1.00000
     16     -15.5518      1.00000
     17     -15.5397      1.00000
     18     -15.5397      1.00000
     19     -15.5397      1.00000
     20     -15.5397      1.00000
     21     -15.5388      1.00000
     22     -15.5388      1.00000
     23     -15.5388      1.00000
     24     -15.5388      1.00000
     25     -13.0057      1.00000
     26     -13.0057      1.00000
     27     -13.0055      1.00000
     28     -13.0055      1.00000
     29     -12.9988      1.00000
     30     -12.9988      1.00000
     31     -12.9987      1.00000
     32     -12.9987      1.00000
     33     -12.9970      1.00000
     34     -12.9970      1.00000
     35     -12.9970      1.00000
     36     -12.9970      1.00000
     37     -12.9953      1.00000
     38     -12.9953      1.00000
     39     -12.9952      1.00000
     40     -12.9952      1.00000
     41     -12.9733      1.00000
     42     -12.9733      1.00000
     43     -12.9733      1.00000
     44     -12.9733      1.00000
     45     -12.9700      1.00000
     46     -12.9700      1.00000
     47     -12.9699      1.00000
     48     -12.9699      1.00000
     49      -9.8817      1.00000
     50      -9.8817      1.00000
     51      -9.8527      1.00000
     52      -9.8527      1.00000
     53      -9.5730      1.00000
     54      -9.5730      1.00000
     55      -9.4722      1.00000
     56      -9.4722      1.00000
     57      -9.4420      1.00000
     58      -9.4419      1.00000
     59      -9.4407      1.00000
     60      -9.4407      1.00000
[...]
    202       6.1548     -0.00000
    203       6.3207     -0.00000
    204       6.3208     -0.00000
    205       6.9289     -0.00000
    206       6.9290     -0.00000
    207       7.0302     -0.00000
    208       7.0303     -0.00000
    209       7.1520     -0.00000
    210       7.1521     -0.00000
    211       7.2217     -0.00000
    212       7.2218     -0.00000
    213       7.2515     -0.00000
    214       7.2515     -0.00000
    215       7.4951     -0.00000
    216       7.4952     -0.00000

[...]

 k-point   240 :       0.5000    0.5000    0.5000
  band No.  band energies     occupation
      1     -18.4728      1.00000
      2     -18.4728      1.00000
      3     -18.4728      1.00000
      4     -18.4728      1.00000
      5     -18.4727      1.00000
      6     -18.4727      1.00000
      7     -18.4727      1.00000
      8     -18.4727      1.00000
      9     -15.5557      1.00000
     10     -15.5557      1.00000
     11     -15.5557      1.00000
     12     -15.5557      1.00000
     13     -15.5557      1.00000
     14     -15.5557      1.00000
     15     -15.5557      1.00000
     16     -15.5557      1.00000
     17     -15.5368      1.00000
     18     -15.5368      1.00000
     19     -15.5368      1.00000
     20     -15.5368      1.00000
     21     -15.5368      1.00000
     22     -15.5368      1.00000
     23     -15.5368      1.00000
     24     -15.5368      1.00000
     25     -13.0171      1.00000
     26     -13.0171      1.00000
     27     -13.0171      1.00000
     28     -13.0171      1.00000
     29     -13.0171      1.00000
     30     -13.0171      1.00000
     31     -13.0171      1.00000
     32     -13.0171      1.00000
     33     -12.9921      1.00000
     34     -12.9921      1.00000
     35     -12.9921      1.00000
     36     -12.9921      1.00000
     37     -12.9921      1.00000
     38     -12.9921      1.00000
     39     -12.9921      1.00000
     40     -12.9921      1.00000
     41     -12.9690      1.00000
     42     -12.9690      1.00000
     43     -12.9690      1.00000
     44     -12.9690      1.00000
     45     -12.9690      1.00000
     46     -12.9690      1.00000
     47     -12.9690      1.00000
     48     -12.9690      1.00000
     49      -9.4606      1.00000
     50      -9.4606      1.00000
     51      -9.4606      1.00000
     52      -9.4606      1.00000
     53      -9.4604      1.00000
     54      -9.4604      1.00000
     55      -9.4604      1.00000
     56      -9.4604      1.00000
     57      -9.2465      1.00000
     58      -9.2465      1.00000
     59      -9.2465      1.00000
     60      -9.2465      1.00000
[...]
    202       7.4202     -0.00000
    203       7.4202     -0.00000
    204       7.4202     -0.00000
    205       7.4564     -0.00000
    206       7.4564     -0.00000
    207       7.4565     -0.00000
    208       7.4565     -0.00000
    209       7.7823      0.00000
    210       7.7824      0.00000
    211       7.7830      0.00000
    212       7.7830      0.00000
    213       7.8015      0.00000
    214       7.8015      0.00000
    215       7.8233      0.00000
    216       7.8234      0.00000

 soft charge-density along one line, spin component           1
         0         1         2         3         4         5         6         7         8         9
 total charge-density along one line

[...]

 soft charge-density along one line, spin component           4
         0         1         2         3         4         5         6         7         8         9
 total charge-density along one line

------------------------ aborting loop because EDIFF is reached ----------------------------------------

[...]

  FORCE on cell =-STRESS in cart. coord.  units (eV):
  Direction    XX          YY          ZZ          XY          YZ          ZX
  Alpha Z   296.55173   296.55173   296.55173
  Ewald   -3119.99048 -2510.75675 -3332.62673    -0.00001     0.00000    -0.00015
  Hartree  1054.17808  1571.00529   816.05370     0.00002    -0.00001    -0.00002
  E(xc)    -729.53358  -729.47210  -729.28322     0.00000    -0.00000     0.00000
  Local   -1439.78342 -2565.66796  -987.42641     0.00001     0.00002     0.00019
  n-local  1990.36418  1993.04760  1992.36099    -0.00021     0.00008    -0.00013
  augment    -5.98476    -5.44058    -4.88651     0.00000     0.00001    -0.00002
  Kinetic  1959.99440  1958.81365  1955.08877    -0.00006     0.00005     0.00007
  Fock        0.00000     0.00000     0.00000     0.00000     0.00000     0.00000
  Total       5.79616     8.08088     5.83233    -0.00025     0.00015    -0.00005
  in kB      10.46029    14.58350    10.52556    -0.00045     0.00027    -0.00009

 VOLUME and BASIS-vectors are now :
  energy-cutoff  :      450.00
  volume of cell :      887.78
      direct lattice vectors                 reciprocal lattice vectors
    10.434200287  0.000000000  0.000000000     0.095838682  0.000000000  0.000000000
     0.000000000  4.790500164  0.000000000     0.000000000  0.208746470  0.000000000
     0.000000000  0.000000000 17.760999680     0.000000000  0.000000000  0.056303137

  length of vectors
    10.434200287  4.790500164 17.760999680     0.095838682  0.208746470  0.056303137

 FORCES acting on ions
    electron-ion (+dipol)            ewald-force                    non-local-force                 convergence-correction
   -.626E+02 -.130E-03 0.527E+02   0.607E+02 -.183E-04 -.506E+02   0.182E+01 -.229E-04 -.206E+01   0.507E-01 0.127E-03 -.701E-01
   0.626E+02 0.225E-03 -.527E+02   -.607E+02 0.183E-04 0.506E+02   -.182E+01 0.229E-04 0.206E+01   -.518E-01 -.317E-03 0.691E-01
   0.626E+02 0.228E-03 0.527E+02   -.607E+02 0.183E-04 -.506E+02   -.182E+01 0.269E-04 -.206E+01   -.506E-01 -.318E-03 -.667E-01
   -.626E+02 -.132E-03 -.527E+02   0.607E+02 -.183E-04 0.506E+02   0.182E+01 -.269E-04 0.206E+01   0.505E-01 0.128E-03 0.695E-01
   0.924E+02 0.960E-05 -.481E+02   -.940E+02 -.117E-04 0.486E+02   0.160E+01 0.470E-05 -.496E+00   -.129E-01 0.270E-04 -.126E-01
   -.924E+02 0.535E-04 0.481E+02   0.940E+02 0.117E-04 -.486E+02   -.160E+01 -.470E-05 0.496E+00   0.130E-01 -.285E-04 0.127E-01
   -.924E+02 0.551E-04 -.481E+02   0.940E+02 0.117E-04 0.486E+02   -.160E+01 -.251E-05 -.496E+00   0.130E-01 -.284E-04 -.126E-01
   0.924E+02 0.802E-05 0.481E+02   -.940E+02 -.117E-04 -.486E+02   0.160E+01 0.251E-05 0.496E+00   -.130E-01 0.269E-04 0.127E-01
   -.398E+02 0.256E-04 0.767E+02   0.405E+02 -.489E-05 -.781E+02   -.784E+00 0.327E-05 0.144E+01   -.123E-01 0.957E-05 0.132E-01
   0.398E+02 0.406E-04 -.767E+02   -.405E+02 0.489E-05 0.781E+02   0.784E+00 -.327E-05 -.144E+01   0.122E-01 -.186E-04 -.132E-01
   0.398E+02 0.635E-04 0.767E+02   -.405E+02 0.489E-05 -.781E+02   0.784E+00 -.105E-04 0.144E+01   0.122E-01 -.288E-04 0.130E-01
   -.398E+02 0.264E-05 -.767E+02   0.405E+02 -.489E-05 0.781E+02   -.784E+00 0.105E-04 -.144E+01   -.123E-01 0.197E-04 -.132E-01
   -.651E+02 0.514E-06 -.122E+03   0.662E+02 -.969E-05 0.123E+03   -.120E+01 0.155E-04 -.141E+01   -.276E-02 0.244E-04 0.332E-01
   0.651E+02 0.657E-04 0.122E+03   -.662E+02 0.969E-05 -.123E+03   0.120E+01 -.155E-04 0.141E+01   0.276E-02 -.291E-04 -.331E-01
   0.651E+02 0.587E-04 -.122E+03   -.662E+02 0.969E-05 0.123E+03   0.120E+01 -.150E-04 -.141E+01   0.266E-02 -.256E-04 0.332E-01
   -.651E+02 0.748E-05 0.122E+03   0.662E+02 -.969E-05 -.123E+03   -.120E+01 0.150E-04 0.141E+01   -.268E-02 0.209E-04 -.331E-01
   -.212E+00 0.525E-05 -.122E+02   0.290E+00 -.548E-05 0.123E+02   -.896E-01 0.759E-06 -.113E+00   0.988E-02 0.222E-04 0.475E-01
   0.212E+00 0.640E-04 0.122E+02   -.290E+00 0.548E-05 -.123E+02   0.896E-01 -.759E-06 0.113E+00   -.986E-02 -.413E-04 -.477E-01
   0.211E+00 0.614E-04 -.122E+02   -.290E+00 0.548E-05 0.123E+02   0.896E-01 0.370E-06 -.113E+00   -.972E-02 -.419E-04 0.477E-01
   -.211E+00 0.786E-05 0.122E+02   0.290E+00 -.548E-05 -.123E+02   -.896E-01 -.370E-06 0.113E+00   0.977E-02 0.228E-04 -.477E-01
   0.291E-03 0.721E-03 -.207E-02   0.422E-14 0.171E-14 0.462E-13   0.000E+00 0.000E+00 0.000E+00   -.103E-02 -.449E-03 0.175E-02

 POSITION                                       TOTAL-FORCE (eV/Angst)
      1.67927      1.19763      7.79733        -0.003623      0.000003     -0.022865
      8.75493      3.59288      9.96367         0.003623     -0.000003      0.022865
      3.53783      3.59288     16.67783         0.003642      0.000003     -0.022852
      6.89637      1.19763      1.08317        -0.003642     -0.000003      0.022852
      1.66861      1.19763      0.03521         0.018651     -0.000001     -0.007957
      8.76559      3.59288     17.72579        -0.018651      0.000001      0.007957
      3.54849      3.59288      8.91571        -0.018653      0.000005     -0.007953
      6.88571      1.19763      8.84529         0.018653     -0.000005      0.007953
      3.13268      1.19763      5.06151        -0.002261      0.000005      0.006232
      7.30152      3.59288     12.69949         0.002261     -0.000005     -0.006232
      2.08442      3.59288     13.94201         0.002254      0.000001      0.006228
      8.34978      1.19763      3.81899        -0.002254     -0.000001     -0.006228
      0.35353      1.19763     10.90043        -0.021059     -0.000000      0.010109
     10.08067      3.59288      6.86057         0.021059      0.000000     -0.010109
      4.86357      3.59288      2.01993         0.021067     -0.000003      0.010109
      5.57063      1.19763     15.74107        -0.021067      0.000003     -0.010109
      4.35243      1.19763     11.93416        -0.001240     -0.000002      0.002139
      6.08177      3.59288      5.82684         0.001240      0.000002     -0.002139
      0.86467      3.59288      3.05366         0.001243      0.000000      0.002140
      9.56953      1.19763     14.70734        -0.001243     -0.000000     -0.002140
    total drift:                               -0.000739      0.000272     -0.000320

  FREE ENERGIE OF THE ION-ELECTRON SYSTEM (eV)
  free  energy   TOTEN  =       -60.18275278 eV

  energy  without entropy=      -60.21995466  energy(sigma->0) =      -60.19515341

 Spin-Orbit-Coupling matrix elements

 Ion:    1  E_soc:     -0.8067495
 l=   1
     0.0000000    -0.0681448    -0.0643452
    -0.0681448     0.0000000    -0.0694224
    -0.0643452    -0.0694224     0.0000000
 l=   2
     0.0000000    -0.0134473     0.0000000    -0.0134873    -0.0537312
    -0.0134473     0.0000000    -0.0402746    -0.0134195    -0.0133968
     0.0000000    -0.0402746     0.0000000    -0.0403255     0.0000000
    -0.0134873    -0.0134195    -0.0403255     0.0000000    -0.0133800
    -0.0537312    -0.0133968     0.0000000    -0.0133800     0.0000000
 l=   3
     0.0000000     0.0000000     0.0000000     0.0000000     0.0000000     0.0000000     0.0000000
     0.0000000     0.0000000     0.0000000     0.0000000     0.0000000     0.0000000     0.0000000
     0.0000000     0.0000000     0.0000000     0.0000000     0.0000000     0.0000000     0.0000000
     0.0000000     0.0000000     0.0000000     0.0000000     0.0000000     0.0000000     0.0000000
     0.0000000     0.0000000     0.0000000     0.0000000     0.0000000     0.0000000     0.0000000
     0.0000000     0.0000000     0.0000000     0.0000000     0.0000000     0.0000000     0.0000000
     0.0000000     0.0000000     0.0000000     0.0000000     0.0000000     0.0000000     0.0000000

[...]

 Ion:   20  E_soc:     -0.2843891
 l=   1
     0.0000000    -0.0473416    -0.0473767
    -0.0473416     0.0000000    -0.0472642
    -0.0473767    -0.0472642     0.0000000
 l=   2
     0.0000000    -0.0000217     0.0000000    -0.0000168    -0.0000622
    -0.0000217     0.0000000    -0.0000425    -0.0000146    -0.0000106
     0.0000000    -0.0000425     0.0000000    -0.0000339     0.0000000
    -0.0000168    -0.0000146    -0.0000339     0.0000000    -0.0000096
    -0.0000622    -0.0000106     0.0000000    -0.0000096     0.0000000
 l=   3
     0.0000000     0.0000000     0.0000000     0.0000000     0.0000000     0.0000000     0.0000000
     0.0000000     0.0000000     0.0000000     0.0000000     0.0000000     0.0000000     0.0000000
     0.0000000     0.0000000     0.0000000     0.0000000     0.0000000     0.0000000     0.0000000
     0.0000000     0.0000000     0.0000000     0.0000000     0.0000000     0.0000000     0.0000000
     0.0000000     0.0000000     0.0000000     0.0000000     0.0000000     0.0000000     0.0000000
     0.0000000     0.0000000     0.0000000     0.0000000     0.0000000     0.0000000     0.0000000
     0.0000000     0.0000000     0.0000000     0.0000000     0.0000000     0.0000000     0.0000000

 total charge

[...]

 magnetization (x)

[...]

 magnetization (y)

[...]

 magnetization (z)

# of ion       s       p       d       tot
    1        0.000   0.000  -0.000   0.000
    2       -0.000  -0.000   0.000  -0.000
    3       -0.000  -0.000   0.000  -0.000
    4        0.000   0.000  -0.000   0.000
    5        0.000   0.000  -0.000   0.000
    6       -0.000  -0.000   0.000  -0.000
    7       -0.000  -0.000   0.000  -0.000
    8        0.000   0.000  -0.000   0.000
    9       -0.000   0.000   0.000   0.000
   10        0.000  -0.000  -0.000  -0.000
   11        0.000  -0.000  -0.000  -0.000
   12       -0.000   0.000   0.000   0.000
   13       -0.000  -0.001   0.000  -0.001
   14        0.000   0.001  -0.000   0.001
   15        0.000   0.001  -0.000   0.001
   16       -0.000  -0.001   0.000  -0.001
   17       -0.000  -0.000  -0.000  -0.000
   18        0.000   0.000   0.000   0.000
   19        0.000   0.000   0.000   0.000
   20       -0.000  -0.000  -0.000  -0.000
tot         -0.000  -0.000   0.000  -0.000