 vasp.5.4.4.18Apr17-6-g9f103f2a35 (build Aug 19 2019 13:15:05) complex

 executed on             LinuxIFC date 2020.04.22  09:28:29

 INCAR:
 POTCAR:    PAW_PBE Pb_d 06Sep2000
 POTCAR:    PAW_PBE I 08Apr2002
 POTCAR:    PAW_PBE Cs_sv 08Apr2002

 POTCAR:    PAW_PBE Pb_d 06Sep2000
   VRHFIN =Pb:

   TITEL  = PAW_PBE Pb_d 06Sep2000
   POMASS =  207.200; ZVAL   =   14.000    mass and valenz
   ENMAX  =  237.835; ENMIN  =  178.376 eV

 POTCAR:    PAW_PBE I 08Apr2002
   VRHFIN =I : s2p5

   TITEL  = PAW_PBE I 08Apr2002
   POMASS =  126.904; ZVAL   =    7.000    mass and valenz
   ENMAX  =  175.647; ENMIN  =  131.735 eV

 POTCAR:    PAW_PBE Cs_sv 08Apr2002
   VRHFIN =Cs: 5s5p6s

   TITEL  = PAW_PBE Cs_sv 08Apr2002
   POMASS =  132.900; ZVAL   =    9.000    mass and valenz
   ENMAX  =  220.318; ENMIN  =  165.238 eV

 Optimization of the real space projectors (new method)

 maximal supplied QI-value         = 15.12
 optimisation between [QCUT,QGAM] = [ 10.73, 21.62] = [ 32.26,130.87] Ry
 Optimized for a Real-space Cutoff    1.38 Angstroem

   l    n(q)    QCUT    max X(q) W(low)/X(q) W(high)/X(q)  e(spline)
   2      8    10.734     3.846    0.42E-03    0.65E-04    0.45E-07
   2      8    10.734     8.593    0.38E-03    0.21E-03    0.11E-06
   0      9    10.734    20.082    0.60E-04    0.15E-03    0.97E-07
   0      9    10.734     8.597    0.89E-04    0.21E-03    0.14E-06
   1      8    10.734    33.223    0.23E-03    0.26E-03    0.11E-06
   1      8    10.734    15.899    0.21E-03    0.24E-03    0.10E-06
 Optimization of the real space projectors (new method)

[...]

   l    n(q)    QCUT    max X(q) W(low)/X(q) W(high)/X(q)  e(spline)
   0      8    10.726   194.483    0.28E-03    0.91E-04    0.87E-07
   0      8    10.726   190.334    0.27E-03    0.88E-04    0.85E-07
   1      8    10.726   116.687    0.16E-03    0.48E-03    0.15E-06
   1      8    10.726    88.696    0.16E-03    0.47E-03    0.15E-06
   2      7    10.726     4.877    0.19E-03    0.30E-04    0.27E-07
 Optimization of the real space projectors (new method)

 maximal supplied QI-value         = 15.12
 optimisation between [QCUT,QGAM] = [ 10.73, 21.62] = [ 32.26,130.87] Ry
 Optimized for a Real-space Cutoff    1.55 Angstroem

   l    n(q)    QCUT    max X(q) W(low)/X(q) W(high)/X(q)  e(spline)
   0     10    10.734    25.322    0.12E-03    0.12E-04    0.48E-06
   0     10    10.734    99.187    0.12E-03    0.12E-04    0.47E-06
   1     10    10.734    11.761    0.20E-03    0.42E-03    0.27E-06
   1     10    10.734     8.275    0.21E-03    0.46E-03    0.30E-06
   2      9    10.734     3.829    0.32E-03    0.79E-04    0.33E-06
  PAW_PBE Pb_d 06Sep2000                :
  PAW_PBE I 08Apr2002                   :
  PAW_PBE Cs_sv 08Apr2002               :

 POSCAR: delta-Cesium_Lead_Iodide
  positions in direct lattice
  velocities in cartesian coordinates
 exchange correlation table for  LEXCH =        8
   RHO(1)=    0.500       N(1)  =     2000
   RHO(2)=  100.500       N(2)  =     4000

 ion  position               nearest neighbor table
   1  0.161  0.250  0.439-   9 3.10   7 3.24   7 3.24  14 3.28  14 3.28  13 3.37
   2  0.839  0.750  0.561-  10 3.10   8 3.24   8 3.24  13 3.28  13 3.28  14 3.37
   3  0.339  0.750  0.939-  11 3.10   5 3.24   5 3.24  16 3.28  16 3.28  15 3.37
   4  0.661  0.250  0.061-  12 3.10   6 3.24   6 3.24  15 3.28  15 3.28  16 3.37
   5  0.160  0.250  0.002-   3 3.24   3 3.24
   6  0.840  0.750  0.998-   4 3.24   4 3.24
   7  0.340  0.750  0.502-   1 3.24   1 3.24
   8  0.660  0.250  0.498-   2 3.24   2 3.24
   9  0.300  0.250  0.285-   1 3.10
  10  0.700  0.750  0.715-   2 3.10
  11  0.200  0.750  0.785-   3 3.10
  12  0.800  0.250  0.215-   4 3.10
  13  0.034  0.250  0.614-   2 3.28   2 3.28   1 3.37
  14  0.966  0.750  0.386-   1 3.28   1 3.28   2 3.37
  15  0.466  0.750  0.114-   4 3.28   4 3.28   3 3.37
  16  0.534  0.250  0.886-   3 3.28   3 3.28   4 3.37
  17  0.417  0.250  0.672-
  18  0.583  0.750  0.328-
  19  0.083  0.750  0.172-
  20  0.917  0.250  0.828-

  LATTYP: Found a simple orthorhombic cell.
 ALAT       =     4.7905001640
 B/A-ratio  =     2.1781024798
 C/A-ratio  =     3.7075459914

  Lattice vectors:

 A1 = (   0.0000000000,  -4.7905001640,   0.0000000000)
 A2 = ( -10.4342002869,   0.0000000000,   0.0000000000)
 A3 = (   0.0000000000,   0.0000000000, -17.7609996796)

Analysis of symmetry for initial positions (statically):
 Subroutine PRICEL returns:
 Original cell was already a primitive cell.

 Routine SETGRP: Setting up the symmetry group for a
 simple orthorhombic supercell.

 Subroutine GETGRP returns: Found  8 space group operations
 (whereof  2 operations were pure point group operations)
 out of a pool of  8 trial point group operations.

The static configuration has the point symmetry S_2 .
 The point group associated with its full space group is D_2h.

Analysis of symmetry for dynamics (positions and initial velocities):
 Subroutine PRICEL returns:
 Original cell was already a primitive cell.

 Routine SETGRP: Setting up the symmetry group for a
 simple orthorhombic supercell.

 Subroutine GETGRP returns: Found  8 space group operations
 (whereof  2 operations were pure point group operations)
 out of a pool of  8 trial point group operations.

The dynamic configuration has the point symmetry S_2 .
 The point group associated with its full space group is D_2h.

 Subroutine INISYM returns: Found  8 space group operations
 (whereof  2 operations are pure point group operations),
 and found     1 'primitive' translations

 KPOINTS: KPT-Resolved Value to Generate K-Mesh: 0

Automatic generation of k-mesh.
Space group operators:
 irot       det(A)        alpha          n_x          n_y          n_z        tau_x        tau_y        tau_z
    1     1.000000     0.000000     1.000000     0.000000     0.000000     0.000000     0.000000     0.000000
    2    -1.000000     0.000000     1.000000     0.000000     0.000000     0.000000     0.000000     0.000000
    3     1.000000   180.000000     0.000000     0.000000     1.000000    -0.500000    -0.000000    -0.500000
    4    -1.000000   180.000000     0.000000     0.000000     1.000000    -0.500000     0.000000    -0.500000
    5     1.000000   180.000000     1.000000     0.000000     0.000000    -0.500000    -0.500000    -0.500000
    6    -1.000000   180.000000     1.000000     0.000000     0.000000    -0.500000    -0.500000    -0.500000
    7     1.000000   180.000000     0.000000     1.000000     0.000000     0.000000    -0.500000     0.000000
    8    -1.000000   180.000000     0.000000     1.000000     0.000000     0.000000    -0.500000     0.000000

 Subroutine IBZKPT returns following result:

 Found      6 irreducible k-points:

 Following reciprocal coordinates:
            Coordinates               Weight
  0.000000  0.000000  0.000000      1.000000
  0.500000  0.000000  0.000000      1.000000
  0.000000  0.200000  0.000000      2.000000
  0.500000  0.200000  0.000000      2.000000
  0.000000  0.400000  0.000000      2.000000
  0.500000  0.400000  0.000000      2.000000

 Following cartesian coordinates:
            Coordinates               Weight
  0.000000  0.000000  0.000000      1.000000
  0.047919  0.000000  0.000000      1.000000
  0.000000  0.041749  0.000000      2.000000
  0.047919  0.041749  0.000000      2.000000
  0.000000  0.083499  0.000000      2.000000
  0.047919  0.083499  0.000000      2.000000

 TETIRR: Found     27 inequivalent tetrahedra from       60

 Subroutine IBZKPT_HF returns following result:

 Found     10 k-points in 1st BZ
 the following     10 k-points will be used (e.g. in the exchange kernel)
 Following reciprocal coordinates:   # in IRBZ
  0.000000  0.000000  0.000000    0.10000000   1 t-inv F
  0.500000  0.000000  0.000000    0.10000000   2 t-inv F
  0.000000  0.200000  0.000000    0.10000000   3 t-inv F
  0.500000  0.200000  0.000000    0.10000000   4 t-inv F
  0.000000  0.400000  0.000000    0.10000000   5 t-inv F
  0.500000  0.400000  0.000000    0.10000000   6 t-inv F
  0.000000 -0.200000  0.000000    0.10000000   3 t-inv F
 -0.500000 -0.200000  0.000000    0.10000000   4 t-inv F
  0.000000 -0.400000  0.000000    0.10000000   5 t-inv F
 -0.500000 -0.400000  0.000000    0.10000000   6 t-inv F

 SYSTEM =  unknown system
 POSCAR =  delta-Cesium_Lead_Iodide

 Startparameter for this run:
   NWRITE =      2    write-flag & timer
   PREC   = normal    normal or accurate (medium, high low for compatibility)
   ISTART =      1    job   : 0-new  1-cont  2-samecut
   ICHARG =     11    charge: 1-file 2-atom 10-const
   ISPIN  =      1    spin polarized calculation?
   LNONCOLLINEAR =      F non collinear calculations
   LSORBIT =      F    spin-orbit coupling
   INIWAV =      1    electr: 0-lowe 1-rand  2-diag
   LASPH  =      F    aspherical Exc in radial PAW
   METAGGA=      F    non-selfconsistent MetaGGA calc.

 Electronic Relaxation 1
   ENCUT  =  520.0 eV  33.07 Ry    5.75 a.u.  18.05  8.29 30.72*2*pi/ulx,y,z
   ENINI  =  520.0     initial cutoff
   ENAUG  =  407.9 eV  augmentation charge cutoff
   NELM   =     60;   NELMIN=  2; NELMDL=  0     # of ELM steps
   EDIFF  = 0.1E-05   stopping-criterion for ELM
   LREAL  =      T    real-space projection
   NLSPLINE    = F    spline interpolate recip. space projectors
   LCOMPAT=      F    compatible to vasp.4.4
   GGA_COMPAT  = T    GGA compatible to vasp.4.4-vasp.4.6
   LMAXPAW     = -100 max onsite density
   LMAXMIX     =    2 max onsite mixed and CHGCAR
   VOSKOWN=      0    Vosko Wilk Nusair interpolation
   ROPT   =   -0.00050  -0.00050  -0.00050
 Ionic relaxation
   EDIFFG = 0.1E-04   stopping-criterion for IOM
   NSW    =      0    number of steps for IOM
   NBLOCK =      1;   KBLOCK =      1    inner block; outer block
   IBRION =     -1    ionic relax: 0-MD 1-quasi-New 2-CG
   NFREE  =      0    steps in history (QN), initial steepest desc. (CG)
   ISIF   =      0    stress and relaxation
   IWAVPR =     10    prediction:  0-non 1-charg 2-wave 3-comb
   ISYM   =      3    0-nonsym 1-usesym 2-fastsym
   LCORR  =      T    Harris-Foulkes like correction to forces

   POTIM  = 0.5000    time-step for ionic-motion
   TEIN   =    0.0    initial temperature
   TEBEG  =    0.0;   TEEND  =   0.0 temperature during run
   SMASS  =  -3.00    Nose mass-parameter (am)
   estimated Nose-frequenzy (Omega)   =  0.10E-29 period in steps =****** mass=  -0.249E-26a.u.
   SCALEE = 1.0000    scale energy and forces
   NPACO  =    256;   APACO  = 16.0  distance and # of slots for P.C.
   PSTRESS=    0.0 pullay stress

  Mass of Ions in am
   POMASS = 207.20126.90132.90
  Ionic Valenz
   ZVAL   =  14.00  7.00  9.00
  Atomic Wigner-Seitz radii
  virtual crystal weights
   VCA    =   1.00  1.00  1.00
   NELECT =     176.0000    total number of electrons
   NUPDOWN=      -1.0000    fix difference up-down

 DOS related values:
   EMIN   =  10.00;   EMAX   =-10.00  energy-range for DOS
   EFERMI =   0.00
   ISMEAR =    -5;   SIGMA  =   0.05  broadening in eV -4-tet -1-fermi 0-gaus

 Electronic relaxation 2 (details)
   IALGO  =     58    algorithm
   LDIAG  =      T    sub-space diagonalisation (order eigenvalues)
[...]
       energy cutoff for augmentation   1800.0
 Maximum index for augmentation-charges in exchange         2249
  SETUP_FOCK is finished

 initial charge density was supplied:
 number of electron     176.0000000 magnetization
 keeping initial charge density in first step

 Maximum index for non-local projection operator         2494
 BZINTS: Fermi energy:  1.371323;176.000000 electrons
         Band energy:***********;  BLOECHL correction:  0.000000
 Maximum index for augmentation-charges         2160 (set IRDMAX)

 First call to EWALD:  gamma=   0.184
 Maximum number of real-space cells 3x 5x 2
 Maximum number of reciprocal cells 3x 2x 5

--------------------------------------- Iteration      1(   1)  ---------------------------------------

 BZINTS: Fermi energy:  1.371329;176.000000 electrons
         Band energy:***********;  BLOECHL correction:  0.000000
 BZINTS: Fermi energy:  1.371330;176.000000 electrons
         Band energy:***********;  BLOECHL correction:  0.000000

 eigenvalue-minimisations  :     0
 total energy-change (2. order) :-0.6756329E+02  (-0.3130184E-05)
 number of electron     176.0000000 magnetization
 augmentation part      176.0000000 magnetization

 Free energy of the ion-electron system (eV)
  alpha Z        PSCENC =       296.55173223
  Ewald energy   TEWEN  =     -8963.34988360
  -Hartree energ DENC   =     -3439.89634090
  -exchange      EXHF   =       317.52340334
  -V(xc)+E(xc)   XCENC  =        14.04597699
  PAW double counting   =     15603.02033964   -15243.66791535
  entropy T*S    EENTRO =         0.00000000
  eigenvalues    EBANDS =     -1294.12722923
  atomic energy  EATOM  =     12642.33662683
  free energy    TOTEN  =       -67.56329006 eV

  energy without entropy =      -67.56329006  energy(sigma->0) =      -67.56329006
  exchange ACFDT corr.  =        -0.00000000  see jH, gK, PRB 81, 115126

[...]

--------------------------------------- Iteration      1(   4)  ---------------------------------------

 BZINTS: Fermi energy:  1.370624;176.000000 electrons
         Band energy:***********;  BLOECHL correction:  0.000000
 BZINTS: Fermi energy:  1.370521;176.000000 electrons
         Band energy:***********;  BLOECHL correction:  0.000000

 eigenvalue-minimisations  :     0
 total energy-change (2. order) :-0.3622226E-06  (-0.1492649E-06)
 number of electron     176.0000000 magnetization
 augmentation part      176.0000000 magnetization

 Free energy of the ion-electron system (eV)
  alpha Z        PSCENC =       296.55173223
  Ewald energy   TEWEN  =     -8963.34988360
  -Hartree energ DENC   =     -3439.89634090
  -exchange      EXHF   =       317.52340495
  -V(xc)+E(xc)   XCENC  =        14.04597699
  PAW double counting   =     15603.02033964   -15243.66791535
  entropy T*S    EENTRO =         0.00000000
  eigenvalues    EBANDS =     -1294.12708539
  atomic energy  EATOM  =     12642.33662683
  free energy    TOTEN  =       -67.56329535 eV

  energy without entropy =      -67.56329535  energy(sigma->0) =      -67.56329535
  exchange ACFDT corr.  =        -0.00000000  see jH, gK, PRB 81, 115126

  average scaling for gradient   0.9105

 average (electrostatic) potential at core
  the test charge radii are     1.1541  1.1875  1.1312
  (the norm of the test charge is              1.0000)
       1 -89.1031       2 -89.1031       3 -89.1032       4 -89.1032       5 -89.0864
       6 -89.0865       7 -89.0865       8 -89.0864       9 -88.8375      10 -88.8376
      11 -88.8376      12 -88.8375      13 -89.2535      14 -89.2535      15 -89.2535
      16 -89.2535      17 -44.9382      18 -44.9382      19 -44.9382      20 -44.9382

 E-fermi :   1.3705     XC(G=0):  -6.6244     alpha+bet : -8.3336

 k-point     1 :       0.0000    0.0000    0.0000
  band No.  band energies     occupation
      1     -20.5961      2.00000
      2     -20.5956      2.00000
      3     -20.5940      2.00000
      4     -20.5935      2.00000
      5     -16.3808      2.00000
      6     -16.3807      2.00000
      7     -16.3711      2.00000
      8     -16.3710      2.00000
      9     -16.3696      2.00000
     10     -16.3695      2.00000
     11     -16.3681      2.00000
     12     -16.3680      2.00000
     13     -16.3449      2.00000
     14     -16.3448      2.00000
     15     -16.3429      2.00000
     16     -16.3428      2.00000
     17     -16.3312      2.00000
     18     -16.3312      2.00000
     19     -16.3281      2.00000
     20     -16.3281      2.00000
     21     -16.3147      2.00000
     22     -16.3147      2.00000
     23     -16.3092      2.00000
     24     -16.3091      2.00000
     25     -11.5708      2.00000
     26     -11.5383      2.00000
     27     -11.2172      2.00000
     28     -11.1081      2.00000
     29     -11.0635      2.00000
     30     -11.0610      2.00000
     31     -11.0451      2.00000
     32     -11.0024      2.00000
     33     -10.7544      2.00000
     34     -10.7053      2.00000
     35     -10.6989      2.00000
     36     -10.6160      2.00000
     37      -6.4932      2.00000
     38      -6.4928      2.00000
     39      -6.4871      2.00000
     40      -6.4796      2.00000
     41      -6.4482      2.00000
     42      -6.4023      2.00000
     43      -6.3784      2.00000
     44      -6.3748      2.00000
     45      -6.3631      2.00000
     46      -6.3601      2.00000
     47      -6.3597      2.00000
     48      -6.3566      2.00000
     49      -6.0950      2.00000
     50      -6.0618      2.00000
     51      -5.9981      2.00000
     52      -5.8473      2.00000
     53      -1.7448      2.00000
     54      -1.4648      2.00000
     55      -1.0270      2.00000
     56      -0.8417      2.00000
     57      -0.8196      2.00000
     58      -0.7464      2.00000
     59      -0.7214      2.00000
     60      -0.5857      2.00000
[...]
    106       7.5535      0.00000
    107       7.5979      0.00000
    108       7.8632      0.00000
    109       7.8956      0.00000
    110       7.9052      0.00000
    111       8.1696      0.00000
    112       8.4980      0.00000
    113       8.6461      0.00000
    114       8.7275      0.00000
    115       8.8058      0.00000
    116       8.9825      0.00000
    117       9.0511      0.00000
    118       9.0524      0.00000
    119       9.0833      0.00000
    120       9.1986      0.00000

[...]

 k-point     6 :       0.5000    0.4000    0.0000
  band No.  band energies     occupation
      1     -20.5812      2.00000
      2     -20.5812      2.00000
      3     -20.5811      2.00000
      4     -20.5811      2.00000
      5     -16.3949      2.00000
      6     -16.3948      2.00000
      7     -16.3944      2.00000
      8     -16.3944      2.00000
      9     -16.3674      2.00000
     10     -16.3674      2.00000
     11     -16.3639      2.00000
     12     -16.3638      2.00000
     13     -16.3336      2.00000
     14     -16.3336      2.00000
     15     -16.3327      2.00000
     16     -16.3326      2.00000
     17     -16.3295      2.00000
     18     -16.3294      2.00000
     19     -16.3288      2.00000
     20     -16.3288      2.00000
     21     -16.3153      2.00000
     22     -16.3152      2.00000
     23     -16.3137      2.00000
     24     -16.3137      2.00000
     25     -11.1830      2.00000
     26     -11.1830      2.00000
     27     -11.0654      2.00000
     28     -11.0654      2.00000
     29     -10.9238      2.00000
     30     -10.9238      2.00000
     31     -10.8043      2.00000
     32     -10.8043      2.00000
     33     -10.7316      2.00000
     34     -10.7315      2.00000
     35     -10.7191      2.00000
     36     -10.7191      2.00000
     37      -6.6363      2.00000
     38      -6.6363      2.00000
     39      -6.5855      2.00000
     40      -6.5855      2.00000
     41      -6.5155      2.00000
     42      -6.5155      2.00000
     43      -6.4906      2.00000
     44      -6.4906      2.00000
     45      -6.4425      2.00000
     46      -6.4425      2.00000
     47      -6.4145      2.00000
     48      -6.4145      2.00000
     49      -6.3448      2.00000
     50      -6.3448      2.00000
     51      -6.3055      2.00000
     52      -6.3055      2.00000
     53      -1.6070      2.00000
     54      -1.6070      2.00000
     55      -1.5481      2.00000
     56      -1.5481      2.00000
     57      -1.2955      2.00000
     58      -1.2955      2.00000
     59      -1.2647      2.00000
     60      -1.2647      2.00000
[...]
    106       7.9934      0.00000
    107       8.2374      0.00000
    108       8.2374      0.00000
    109       8.3635      0.00000
    110       8.3635      0.00000
    111       8.5703      0.00000
    112       8.5703      0.00000
    113       8.6324      0.00000
    114       8.6324      0.00000
    115       8.8358      0.00000
    116       8.8360      0.00000
    117       9.1799      0.00000
    118       9.1806      0.00000
    119       9.3592      0.00000
    120       9.3782      0.00000

 soft charge-density along one line, spin component           1
         0         1         2         3         4         5         6         7         8         9
 total charge-density along one line

------------------------ aborting loop because EDIFF is reached ----------------------------------------

 total charge

# of ion       s       p       d       tot
    1        1.531   0.440   9.841  11.812
    2        1.531   0.440   9.841  11.812
    3        1.531   0.440   9.841  11.812
    4        1.531   0.440   9.841  11.812
    5        1.504   2.885   0.007   4.396
    6        1.504   2.885   0.007   4.396
    7        1.504   2.885   0.007   4.396
    8        1.504   2.885   0.007   4.396
    9        1.501   2.901   0.005   4.407
   10        1.501   2.901   0.005   4.407
   11        1.501   2.901   0.005   4.407
   12        1.501   2.901   0.005   4.407
   13        1.507   2.872   0.008   4.387
   14        1.507   2.872   0.008   4.387
   15        1.507   2.872   0.008   4.387
   16        1.507   2.872   0.008   4.387
   17        2.290   4.722   0.024   7.037
   18        2.290   4.722   0.024   7.037
   19        2.290   4.722   0.024   7.037
   20        2.290   4.722   0.024   7.037
tot         33.332  55.278  39.544 128.154

 VOLUME and BASIS-vectors are now :
  energy-cutoff  :      450.00
  volume of cell :      887.78
      direct lattice vectors                 reciprocal lattice vectors
    10.434200287  0.000000000  0.000000000     0.095838682  0.000000000  0.000000000
     0.000000000  4.790500164  0.000000000     0.000000000  0.208746470  0.000000000
     0.000000000  0.000000000 17.760999680     0.000000000  0.000000000  0.056303137

  length of vectors
    10.434200287  4.790500164 17.760999680     0.095838682  0.208746470  0.056303137

 FORCES acting on ions
    electron-ion (+dipol)            ewald-force                    non-local-force                 convergence-correction
   -.627E+02 -.122E-03 0.529E+02   0.607E+02 -.183E-04 -.506E+02   0.186E+01 -.318E-21 -.210E+01   0.130E-01 0.119E-03 -.985E-02
   0.627E+02 0.242E-03 -.529E+02   -.607E+02 0.183E-04 0.506E+02   -.186E+01 0.424E-21 0.210E+01   -.143E-01 -.345E-03 0.850E-02
   0.627E+02 0.242E-03 0.529E+02   -.607E+02 0.183E-04 -.506E+02   -.186E+01 0.424E-21 -.210E+01   -.131E-01 -.346E-03 -.579E-02
   -.627E+02 -.122E-03 -.529E+02   0.607E+02 -.183E-04 0.506E+02   0.186E+01 -.106E-20 0.210E+01   0.130E-01 0.120E-03 0.930E-02
   0.922E+02 -.259E-05 -.480E+02   -.940E+02 -.117E-04 0.486E+02   0.174E+01 0.424E-21 -.603E+00   -.586E-04 0.266E-04 -.262E-02
   -.922E+02 0.476E-04 0.480E+02   0.940E+02 0.117E-04 -.486E+02   -.174E+01 0.265E-22 0.603E+00   0.210E-03 -.284E-04 0.287E-02
   -.922E+02 0.479E-04 -.480E+02   0.940E+02 0.117E-04 0.486E+02   -.174E+01 0.476E-21 -.603E+00   0.131E-03 -.285E-04 -.273E-02
   0.922E+02 -.322E-05 0.480E+02   -.940E+02 -.117E-04 -.486E+02   0.174E+01 0.424E-21 0.603E+00   -.488E-04 0.272E-04 0.279E-02
   -.397E+02 0.801E-06 0.765E+02   0.405E+02 -.489E-05 -.781E+02   -.859E+00 -.212E-21 0.154E+01   -.227E-03 0.161E-04 -.194E-03
   0.397E+02 0.504E-04 -.765E+02   -.405E+02 0.489E-05 0.781E+02   0.859E+00 -.212E-21 -.154E+01   0.174E-03 -.279E-04 0.105E-03
   0.397E+02 0.491E-04 0.765E+02   -.405E+02 0.489E-05 -.781E+02   0.859E+00 0.132E-22 0.154E+01   0.100E-03 -.270E-04 -.316E-03
   -.397E+02 0.215E-05 -.765E+02   0.405E+02 -.489E-05 0.781E+02   -.859E+00 0.000E+00 -.154E+01   -.179E-03 0.159E-04 0.144E-03
   -.649E+02 -.265E-05 -.121E+03   0.662E+02 -.969E-05 0.123E+03   -.125E+01 -.212E-21 -.157E+01   -.124E-02 0.251E-04 0.513E-02
   0.649E+02 0.513E-04 0.121E+03   -.662E+02 0.969E-05 -.123E+03   0.125E+01 -.212E-21 0.157E+01   0.123E-02 -.308E-04 -.516E-02
   0.649E+02 0.521E-04 -.121E+03   -.662E+02 0.969E-05 0.123E+03   0.125E+01 0.265E-21 -.157E+01   0.108E-02 -.314E-04 0.526E-02
   -.649E+02 -.378E-05 0.121E+03   0.662E+02 -.969E-05 -.123E+03   -.125E+01 -.212E-21 0.157E+01   -.111E-02 0.251E-04 -.511E-02
   -.185E+00 0.182E-05 -.121E+02   0.290E+00 -.548E-05 0.123E+02   -.106E+00 -.265E-22 -.141E+00   0.116E-02 0.209E-04 0.626E-02
   0.185E+00 0.523E-04 0.121E+02   -.290E+00 0.548E-05 -.123E+02   0.106E+00 0.000E+00 0.141E+00   -.112E-02 -.449E-04 -.645E-02
   0.185E+00 0.512E-04 -.121E+02   -.290E+00 0.548E-05 0.123E+02   0.106E+00 0.000E+00 -.141E+00   -.952E-03 -.437E-04 0.635E-02
   -.185E+00 0.313E-05 0.121E+02   0.290E+00 -.548E-05 -.123E+02   -.106E+00 -.132E-21 0.141E+00   0.103E-02 0.191E-04 -.633E-02
   0.531E-03 0.637E-03 -.199E-02   0.422E-14 0.171E-14 0.462E-13   -.222E-15 -.119E-21 -.611E-15   -.132E-02 -.540E-03 0.216E-02

 POSITION                                       TOTAL-FORCE (eV/Angst)
      1.67927      1.19763      7.79733         0.056569     -0.000000     -0.073013
      8.75493      3.59288      9.96367        -0.056569      0.000000      0.073013
      3.53783      3.59288     16.67783        -0.056569      0.000000     -0.073013
      6.89637      1.19763      1.08317         0.056569     -0.000000      0.073013
      1.66861      1.19763      0.03521         0.079956     -0.000000     -0.046977
      8.76559      3.59288     17.72579        -0.079956      0.000000      0.046977
      3.54849      3.59288      8.91571        -0.079956      0.000000     -0.046977
      6.88571      1.19763      8.84529         0.079956      0.000000      0.046977
      3.13268      1.19763      5.06151        -0.072026      0.000000      0.080392
      7.30152      3.59288     12.69949         0.072026     -0.000000     -0.080392
      2.08442      3.59288     13.94201         0.072026      0.000000      0.080392
      8.34978      1.19763      3.81899        -0.072026      0.000000     -0.080392
      0.35353      1.19763     10.90043        -0.038969      0.000000     -0.063709
     10.08067      3.59288      6.86057         0.038969     -0.000000      0.063709
      4.86357      3.59288      2.01993         0.038969      0.000000     -0.063709
      5.57063      1.19763     15.74107        -0.038969      0.000000      0.063709
      4.35243      1.19763     11.93416         0.000688      0.000000      0.002250
      6.08177      3.59288      5.82684        -0.000688      0.000000     -0.002250
      0.86467      3.59288      3.05366        -0.000688     -0.000000      0.002250
      9.56953      1.19763     14.70734         0.000688      0.000000     -0.002250
    total drift:                               -0.000785      0.000098      0.000174

  FREE ENERGIE OF THE ION-ELECTRON SYSTEM (eV)
  free  energy   TOTEN  =       -67.56329535 eV

  energy  without entropy=      -67.56329535  energy(sigma->0) =      -67.56329535

 total charge

# of ion       s       p       d       tot
    1        1.531   0.440   9.841  11.812
    2        1.531   0.440   9.841  11.812
    3        1.531   0.440   9.841  11.812
    4        1.531   0.440   9.841  11.812
    5        1.504   2.885   0.007   4.396
    6        1.504   2.885   0.007   4.396
    7        1.504   2.885   0.007   4.396
    8        1.504   2.885   0.007   4.396
    9        1.501   2.901   0.005   4.407
   10        1.501   2.901   0.005   4.407
   11        1.501   2.901   0.005   4.407
   12        1.501   2.901   0.005   4.407
   13        1.507   2.872   0.008   4.387
   14        1.507   2.872   0.008   4.387
   15        1.507   2.872   0.008   4.387
   16        1.507   2.872   0.008   4.387
   17        2.290   4.722   0.024   7.037
   18        2.290   4.722   0.024   7.037
   19        2.290   4.722   0.024   7.037
   20        2.290   4.722   0.024   7.037
tot         33.332  55.278  39.544 128.154

 BZINTS: Fermi energy:  1.383113;176.000000 electrons
         Band energy:***********;  BLOECHL correction:  0.000000