 vasp.5.4.4.18Apr17-6-g9f103f2a35 (build Aug 19 2019 13:40:55) complex

 executed on             LinuxIFC date 2020.04.17  08:29:57

 INCAR:
 POTCAR:    PAW_PBE I 08Apr2002
 POTCAR:    PAW_PBE Pb_d 06Sep2000
 POTCAR:    PAW_PBE Cs_sv 08Apr2002

 POTCAR:    PAW_PBE I 08Apr2002
   VRHFIN =I : s2p5

   TITEL  = PAW_PBE I 08Apr2002
   POMASS =  126.904; ZVAL   =    7.000    mass and valenz
   ENMAX  =  175.647; ENMIN  =  131.735 eV

 POTCAR:    PAW_PBE Pb_d 06Sep2000
   VRHFIN =Pb:

   TITEL  = PAW_PBE Pb_d 06Sep2000
   POMASS =  207.200; ZVAL   =   14.000    mass and valenz
   ENMAX  =  237.835; ENMIN  =  178.376 eV

 POTCAR:    PAW_PBE Cs_sv 08Apr2002
   VRHFIN =Cs: 5s5p6s

   TITEL  = PAW_PBE Cs_sv 08Apr2002
   POMASS =  132.900; ZVAL   =    9.000    mass and valenz
   ENMAX  =  220.318; ENMIN  =  165.238 eV

 Optimization of the real space projectors (new method)

 maximal supplied QI-value         = 16.25
 optimisation between [QCUT,QGAM] = [ 10.73, 21.61] = [ 32.22,130.83] Ry
 Optimized for a Real-space Cutoff    1.30 Angstroem

   l    n(q)    QCUT    max X(q) W(low)/X(q) W(high)/X(q)  e(spline)
   0      8    10.726   194.483    0.28E-03    0.91E-04    0.87E-07
   0      8    10.726   190.334    0.27E-03    0.88E-04    0.85E-07
   1      8    10.726   116.687    0.16E-03    0.48E-03    0.15E-06
   1      8    10.726    88.696    0.16E-03    0.47E-03    0.15E-06
   2      7    10.726     4.877    0.19E-03    0.30E-04    0.27E-07
 Optimization of the real space projectors (new method)

[...]

   l    n(q)    QCUT    max X(q) W(low)/X(q) W(high)/X(q)  e(spline)
   2      8    10.734     3.846    0.42E-03    0.65E-04    0.45E-07
   2      8    10.734     8.593    0.38E-03    0.21E-03    0.11E-06
   0      9    10.734    20.082    0.60E-04    0.15E-03    0.97E-07
   0      9    10.734     8.597    0.89E-04    0.21E-03    0.14E-06
   1      8    10.734    33.223    0.23E-03    0.26E-03    0.11E-06
   1      8    10.734    15.899    0.21E-03    0.24E-03    0.10E-06
 Optimization of the real space projectors (new method)

 maximal supplied QI-value         = 15.12
 optimisation between [QCUT,QGAM] = [ 10.73, 21.62] = [ 32.26,130.87] Ry
 Optimized for a Real-space Cutoff    1.55 Angstroem

   l    n(q)    QCUT    max X(q) W(low)/X(q) W(high)/X(q)  e(spline)
   0     10    10.734    25.322    0.12E-03    0.12E-04    0.48E-06
   0     10    10.734    99.187    0.12E-03    0.12E-04    0.47E-06
   1     10    10.734    11.761    0.20E-03    0.42E-03    0.27E-06
   1     10    10.734     8.275    0.21E-03    0.46E-03    0.30E-06
   2      9    10.734     3.829    0.32E-03    0.79E-04    0.33E-06
  PAW_PBE I 08Apr2002                   :
  PAW_PBE Pb_d 06Sep2000                :
  PAW_PBE Cs_sv 08Apr2002               :

 POSCAR: CsPbI3_325K
  positions in direct lattice
  velocities in cartesian coordinates
 exchange correlation table for  LEXCH =        8
   RHO(1)=    0.500       N(1)  =     2000
   RHO(2)=  100.500       N(2)  =     4000

 ion  position               nearest neighbor table
   1  0.192  0.306  0.540-  14 3.21  13 3.21
   2  0.808  0.694  0.460-  14 3.21  13 3.21
   3  0.692  0.194  0.460-  13 3.21  14 3.21
   4  0.308  0.806  0.540-  13 3.21  14 3.21
   5  0.808  0.694  0.040-  16 3.21  15 3.21
   6  0.192  0.306  0.960-  16 3.21  15 3.21
   7  0.308  0.806  0.960-  15 3.21  16 3.21
   8  0.692  0.194  0.040-  15 3.21  16 3.21
   9  0.918  0.000  0.750-  15 3.21  13 3.21
  10  0.082  1.000  0.250-  13 3.21  15 3.21
  11  0.418  0.500  0.250-  14 3.21  16 3.21
  12  0.582  0.500  0.750-  16 3.21  14 3.21
  13  0.000  0.000  0.500-   3 3.21   4 3.21  10 3.21   9 3.21   1 3.21   2 3.21
  14  0.500  0.500  0.500-   2 3.21   1 3.21  11 3.21  12 3.21   3 3.21   4 3.21
  15  0.000  0.000  0.000-   8 3.21   7 3.21   9 3.21  10 3.21   6 3.21   5 3.21
  16  0.500  0.500  0.000-   5 3.21   6 3.21  12 3.21  11 3.21   8 3.21   7 3.21
  17  0.978  0.424  0.250-
  18  0.022  0.576  0.750-
  19  0.478  0.076  0.750-
  20  0.522  0.924  0.250-

  LATTYP: Found a simple orthorhombic cell.
 ALAT       =     8.6751003265
 B/A-ratio  =     1.0171640703
 C/A-ratio  =     1.4438795264

  Lattice vectors:

 A1 = (   8.6751003265,   0.0000000000,   0.0000000000)
 A2 = (   0.0000000000,   8.8240003586,   0.0000000000)
 A3 = (   0.0000000000,   0.0000000000,  12.5257997513)

Analysis of symmetry for initial positions (statically):
 Subroutine PRICEL returns:
 Original cell was already a primitive cell.

 Routine SETGRP: Setting up the symmetry group for a
 simple orthorhombic supercell.

 Subroutine GETGRP returns: Found  8 space group operations
 (whereof  2 operations were pure point group operations)
 out of a pool of  8 trial point group operations.

The static configuration has the point symmetry S_2 .
 The point group associated with its full space group is D_2h.

Analysis of symmetry for dynamics (positions and initial velocities):
 Subroutine PRICEL returns:
 Original cell was already a primitive cell.

[...]

The dynamic configuration has the point symmetry S_2 .
 The point group associated with its full space group is D_2h.

Analysis of structural, dynamic, and magnetic symmetry:
 Subroutine PRICEL returns:
 Original cell was already a primitive cell.

 Routine SETGRP: Setting up the symmetry group for a
 simple orthorhombic supercell.

 Subroutine GETGRP returns: Found  2 space group operations
 (whereof  2 operations were pure point group operations)
 out of a pool of  8 trial point group operations.

The (compounded) configuration has the point symmetry S_2 .

 Subroutine INISYM returns: Found  2 space group operations
 (whereof  2 operations are pure point group operations),
 and found     1 'primitive' translations

 KPOINTS: K-Path Generated by VASPKIT.
  interpolating k-points between supplied coordinates
  k-points in reciprocal lattice
Space group operators:
 irot       det(A)        alpha          n_x          n_y          n_z        tau_x        tau_y        tau_z
    1     1.000000     0.000000     1.000000     0.000000     0.000000     0.000000     0.000000     0.000000
    2    -1.000000     0.000000     1.000000     0.000000     0.000000     0.000000     0.000000     0.000000

 SYSTEM =  unknown system
 POSCAR =  CsPbI3_325K

 Startparameter for this run:
   NWRITE =      2    write-flag & timer
   PREC   = normal    normal or accurate (medium, high low for compatibility)
   ISTART =      1    job   : 0-new  1-cont  2-samecut
   ICHARG =     11    charge: 1-file 2-atom 10-const
   ISPIN  =      1    spin polarized calculation?
   LNONCOLLINEAR =      T non collinear calculations
   LSORBIT =      T    spin-orbit coupling
   INIWAV =      1    electr: 0-lowe 1-rand  2-diag
   LASPH  =      F    aspherical Exc in radial PAW
   METAGGA=      F    non-selfconsistent MetaGGA calc.

 Electronic Relaxation 1
   ENCUT  =  520.0 eV  33.07 Ry    5.75 a.u.  15.01 15.26 21.67*2*pi/ulx,y,z
   ENINI  =  520.0     initial cutoff
   ENAUG  =  407.9 eV  augmentation charge cutoff
   NELM   =    200;   NELMIN=  2; NELMDL=  0     # of ELM steps
   EDIFF  = 0.1E-06   stopping-criterion for ELM
   LREAL  =      T    real-space projection
   NLSPLINE    = F    spline interpolate recip. space projectors
   LCOMPAT=      F    compatible to vasp.4.4
   GGA_COMPAT  = F    GGA compatible to vasp.4.4-vasp.4.6
   LMAXPAW     = -100 max onsite density
   LMAXMIX     =    4 max onsite mixed and CHGCAR
   VOSKOWN=      1    Vosko Wilk Nusair interpolation
   ROPT   =   -0.00050  -0.00050  -0.00050
 Ionic relaxation
   EDIFFG = 0.1E-05   stopping-criterion for IOM
   NSW    =      0    number of steps for IOM
   NBLOCK =      1;   KBLOCK =      1    inner block; outer block
   IBRION =     -1    ionic relax: 0-MD 1-quasi-New 2-CG
   NFREE  =      0    steps in history (QN), initial steepest desc. (CG)
   ISIF   =      2    stress and relaxation
   IWAVPR =     10    prediction:  0-non 1-charg 2-wave 3-comb
   ISYM   =      2    0-nonsym 1-usesym 2-fastsym
   LCORR  =      T    Harris-Foulkes like correction to forces

   POTIM  = 0.5000    time-step for ionic-motion
   TEIN   =    0.0    initial temperature
   TEBEG  =    0.0;   TEEND  =   0.0 temperature during run
   SMASS  =  -3.00    Nose mass-parameter (am)
   estimated Nose-frequenzy (Omega)   =  0.10E-29 period in steps =****** mass=  -0.172E-26a.u.
   SCALEE = 1.0000    scale energy and forces
   NPACO  =    256;   APACO  = 16.0  distance and # of slots for P.C.
   PSTRESS=    0.0 pullay stress

  Mass of Ions in am
   POMASS = 126.90207.20132.90
  Ionic Valenz
   ZVAL   =   7.00 14.00  9.00
  Atomic Wigner-Seitz radii
  virtual crystal weights
   VCA    =   1.00  1.00  1.00
   NELECT =     176.0000    total number of electrons
   NUPDOWN=      -1.0000    fix difference up-down

 DOS related values:
   EMIN   =  10.00;   EMAX   =-10.00  energy-range for DOS
   EFERMI =   0.00
   ISMEAR =     0;   SIGMA  =   0.05  broadening in eV -4-tet -1-fermi 0-gaus

 Electronic relaxation 2 (details)
   IALGO  =     38    algorithm
   LDIAG  =      T    sub-space diagonalisation (order eigenvalues)
   LSUBROT=      F    optimize rotation matrix (better conditioning)
   TURBO    =      0    0=normal 1=particle mesh
   IRESTART =      0    0=no restart 2=restart with 2 vectors
   NREBOOT  =      0    no. of reboots
   NMIN     =      0    reboot dimension
   EREF     =   0.00    reference energy to select bands
   IMIX   =      4    mixing-type and parameters
     AMIX     =   0.40;   BMIX     =  1.00
     AMIX_MAG =   1.60;   BMIX_MAG =  1.00
     AMIN     =   0.10
     WC   =   100.;   INIMIX=   1;  MIXPRE=   1;  MAXMIX= -45

 Intra band minimization:
   WEIMIN = 0.0000     energy-eigenvalue tresh-hold
   EBREAK =  0.10E-09  absolut break condition
   DEPER  =   0.30     relativ break condition

   TIME   =   0.40     timestep for ELM

  volume/ion in A,a.u.               =      47.94       323.53
  Fermi-wavevector in a.u.,A,eV,Ry     =   0.930388  1.758178 11.777489  0.865621
  Thomas-Fermi vector in A             =   2.056771

 Write flags
   LWAVE        =      F    write WAVECAR
   LDOWNSAMPLE  =      F    k-point downsampling of WAVECAR
   LCHARG       =      F    write CHGCAR
   LVTOT        =      F    write LOCPOT, total local potential
   LVHAR        =      F    write LOCPOT, Hartree potential only
   LELF         =      F    write electronic localiz. function (ELF)
   LORBIT       =     10    0 simple, 1 ext, 2 COOP (PROOUT), +10 PAW based schemes

 Dipole corrections
   LMONO  =      F    monopole corrections only (constant potential shift)
   LDIPOL =      F    correct potential (dipole corrections)
   IDIPOL =      0    1-x, 2-y, 3-z, 4-all directions
   EPSILON=  1.0000000 bulk dielectric constant

 Exchange correlation treatment:
   GGA     =    --    GGA type
   VOSKOWN=      1    Vosko Wilk Nusair interpolation
   LHFCALC =     F    Hartree Fock is set to
   LHFONE  =     F    Hartree Fock one center treatment
   AEXX    =    0.0000 exact exchange contribution

 Linear response parameters
   LEPSILON=     F    determine dielectric tensor
   LRPA    =     F    only Hartree local field effects (RPA)
[...]
  -V(xc)+E(xc)   XCENC  =        35.90778704
  PAW double counting   =     12716.31831445   -12305.15119399
  entropy T*S    EENTRO =        -0.00000000
  eigenvalues    EBANDS =     -1162.47092650
  atomic energy  EATOM  =     12659.57197118
  Solvation  Ediel_sol  =         0.00000000
  free energy    TOTEN  =       -60.31968323 eV

  energy without entropy =      -60.31968323  energy(sigma->0) =      -60.31968323

 average (electrostatic) potential at core
  the test charge radii are     1.1875  1.1541  1.1312
  (the norm of the test charge is              1.0000)
       1 -93.2404       2 -93.2404       3 -93.2404       4 -93.2404       5 -93.2404
       6 -93.2404       7 -93.2404       8 -93.2404       9 -93.2103      10 -93.2103
      11 -93.2103      12 -93.2103      13 -95.2367      14 -95.2367      15 -95.2367
      16 -95.2367      17 -48.8202      18 -48.8202      19 -48.8202      20 -48.8202

 E-fermi :   1.9976     XC(G=0):  -7.5283     alpha+bet : -7.7161

 k-point     1 :       0.0000    0.0000    0.0000
  band No.  band energies     occupation
      1     -19.0813      1.00000
      2     -19.0813      1.00000
      3     -19.0808      1.00000
      4     -19.0808      1.00000
      5     -19.0797      1.00000
      6     -19.0797      1.00000
      7     -19.0794      1.00000
      8     -19.0794      1.00000
      9     -16.2333      1.00000
     10     -16.2333      1.00000
     11     -16.2323      1.00000
     12     -16.2323      1.00000
     13     -16.2316      1.00000
     14     -16.2316      1.00000
     15     -16.2303      1.00000
     16     -16.2303      1.00000
     17     -16.2274      1.00000
     18     -16.2274      1.00000
     19     -16.2266      1.00000
     20     -16.2266      1.00000
     21     -16.2246      1.00000
     22     -16.2246      1.00000
     23     -16.2241      1.00000
     24     -16.2241      1.00000
     25     -13.6945      1.00000
     26     -13.6945      1.00000
     27     -13.6925      1.00000
     28     -13.6925      1.00000
     29     -13.6924      1.00000
     30     -13.6924      1.00000
     31     -13.6889      1.00000
     32     -13.6889      1.00000
     33     -13.6838      1.00000
     34     -13.6838      1.00000
     35     -13.6780      1.00000
     36     -13.6780      1.00000
     37     -13.6757      1.00000
     38     -13.6757      1.00000
     39     -13.6756      1.00000
     40     -13.6756      1.00000
     41     -13.6533      1.00000
     42     -13.6533      1.00000
     43     -13.6529      1.00000
     44     -13.6529      1.00000
     45     -13.6527      1.00000
     46     -13.6527      1.00000
     47     -13.6522      1.00000
     48     -13.6522      1.00000
     49     -10.3308      1.00000
     50     -10.3308      1.00000
     51     -10.1632      1.00000
     52     -10.1632      1.00000
     53      -9.9029      1.00000
     54      -9.9029      1.00000
     55      -9.8903      1.00000
     56      -9.8903      1.00000
     57      -9.8818      1.00000
     58      -9.8818      1.00000
     59      -9.8714      1.00000
     60      -9.8714      1.00000
[...]
    226       7.4100      0.00000
    227       7.4771      0.00000
    228       7.4771      0.00000
    229       7.6168      0.00000
    230       7.6168      0.00000
    231       7.6966      0.00000
    232       7.6966      0.00000
    233       7.8278      0.00000
    234       7.8278      0.00000
    235       7.8445      0.00000
    236       7.8445      0.00000
    237       7.8625      0.00000
    238       7.8625      0.00000
    239       8.0424      0.00000
    240       8.0705      0.00000

[...]

 k-point   240 :       0.5000    0.5000    0.5000
  band No.  band energies     occupation
      1     -19.0803      1.00000
      2     -19.0803      1.00000
      3     -19.0803      1.00000
      4     -19.0803      1.00000
      5     -19.0803      1.00000
      6     -19.0803      1.00000
      7     -19.0803      1.00000
      8     -19.0803      1.00000
      9     -16.2321      1.00000
     10     -16.2321      1.00000
     11     -16.2321      1.00000
     12     -16.2321      1.00000
     13     -16.2318      1.00000
     14     -16.2318      1.00000
     15     -16.2318      1.00000
     16     -16.2318      1.00000
     17     -16.2258      1.00000
     18     -16.2258      1.00000
     19     -16.2257      1.00000
     20     -16.2257      1.00000
     21     -16.2255      1.00000
     22     -16.2255      1.00000
     23     -16.2255      1.00000
     24     -16.2255      1.00000
     25     -13.6904      1.00000
     26     -13.6904      1.00000
     27     -13.6904      1.00000
     28     -13.6904      1.00000
     29     -13.6900      1.00000
     30     -13.6900      1.00000
     31     -13.6900      1.00000
     32     -13.6900      1.00000
     33     -13.6805      1.00000
     34     -13.6805      1.00000
     35     -13.6805      1.00000
     36     -13.6805      1.00000
     37     -13.6799      1.00000
     38     -13.6799      1.00000
     39     -13.6799      1.00000
     40     -13.6799      1.00000
     41     -13.6529      1.00000
     42     -13.6529      1.00000
     43     -13.6529      1.00000
     44     -13.6529      1.00000
     45     -13.6526      1.00000
     46     -13.6526      1.00000
     47     -13.6526      1.00000
     48     -13.6526      1.00000
     49     -10.0732      1.00000
     50     -10.0732      1.00000
     51     -10.0732      1.00000
     52     -10.0732      1.00000
     53     -10.0723      1.00000
     54     -10.0723      1.00000
     55     -10.0723      1.00000
     56     -10.0723      1.00000
     57      -9.8942      1.00000
     58      -9.8942      1.00000
     59      -9.8942      1.00000
     60      -9.8942      1.00000
[...]
    226       7.5180      0.00000
    227       7.5180      0.00000
    228       7.5180      0.00000
    229       7.5382      0.00000
    230       7.5383      0.00000
    231       7.5383      0.00000
    232       7.5383      0.00000
    233       7.8799      0.00000
    234       7.8800      0.00000
    235       7.8800      0.00000
    236       7.8801      0.00000
    237       7.8897      0.00000
    238       7.8897      0.00000
    239       7.8899      0.00000
    240       7.8900      0.00000

 soft charge-density along one line, spin component           1
         0         1         2         3         4         5         6         7         8         9
 total charge-density along one line

[...]

 soft charge-density along one line, spin component           4
         0         1         2         3         4         5         6         7         8         9
 total charge-density along one line

------------------------ aborting loop because EDIFF is reached ----------------------------------------

[...]

  FORCE on cell =-STRESS in cart. coord.  units (eV):
  Direction    XX          YY          ZZ          XY          YZ          ZX
  Alpha Z   274.57590   274.57590   274.57590
  Ewald   -2951.30367 -2917.58973 -2865.05795    -0.00001     0.00001     0.00000
  Hartree  1157.47842  1179.24716  1208.37806     0.00001    -0.00002     0.00000
  E(xc)    -729.24018  -729.18327  -729.16563    -0.00000     0.00000     0.00000
  Local   -1688.13279 -1745.34502 -1825.21343    -0.00000     0.00002    -0.00000
  n-local  1990.49510  1991.07676  1990.79693    -0.00001    -0.00000    -0.00001
  augment    -4.50854    -5.06526    -4.75810    -0.00000     0.00000    -0.00000
  Kinetic  1954.85045  1957.93213  1954.67261    -0.00000    -0.00000    -0.00000
  Fock        0.00000     0.00000     0.00000     0.00000     0.00000     0.00000
  Total       4.21469     5.64867     4.22839    -0.00002     0.00001    -0.00001
  in kB       7.04256     9.43869     7.06545    -0.00004     0.00001    -0.00002

 VOLUME and BASIS-vectors are now :
  energy-cutoff  :      450.00
  volume of cell :      958.84
      direct lattice vectors                 reciprocal lattice vectors
     8.675100327  0.000000000  0.000000000     0.115272442  0.000000000  0.000000000
     0.000000000  8.824000359  0.000000000     0.000000000  0.113327285  0.000000000
     0.000000000  0.000000000 12.525799751     0.000000000  0.000000000  0.079835222

  length of vectors
     8.675100327  8.824000359 12.525799751     0.115272442  0.113327285  0.079835222

 FORCES acting on ions
    electron-ion (+dipol)            ewald-force                    non-local-force                 convergence-correction
   0.238E+02 -.190E+02 -.172E+02   -.244E+02 0.195E+02 0.175E+02   0.530E+00 -.448E+00 -.366E+00   0.869E-02 -.758E-02 -.149E-01
   -.238E+02 0.190E+02 0.172E+02   0.244E+02 -.195E+02 -.175E+02   -.530E+00 0.448E+00 0.366E+00   -.876E-02 0.752E-02 0.149E-01
   0.238E+02 0.190E+02 0.172E+02   -.244E+02 -.195E+02 -.175E+02   0.530E+00 0.448E+00 0.366E+00   0.875E-02 0.758E-02 0.149E-01
   -.238E+02 -.190E+02 -.172E+02   0.244E+02 0.195E+02 0.175E+02   -.530E+00 -.448E+00 -.366E+00   -.868E-02 -.752E-02 -.149E-01
   -.238E+02 0.190E+02 -.172E+02   0.244E+02 -.195E+02 0.175E+02   -.530E+00 0.448E+00 -.366E+00   -.876E-02 0.752E-02 -.149E-01
   0.238E+02 -.190E+02 0.172E+02   -.244E+02 0.195E+02 -.175E+02   0.530E+00 -.448E+00 0.366E+00   0.870E-02 -.758E-02 0.149E-01
   -.238E+02 -.190E+02 0.172E+02   0.244E+02 0.195E+02 -.175E+02   -.530E+00 -.448E+00 0.366E+00   -.868E-02 -.752E-02 0.149E-01
   0.238E+02 0.190E+02 -.172E+02   -.244E+02 -.195E+02 0.175E+02   0.530E+00 0.448E+00 -.366E+00   0.874E-02 0.758E-02 -.149E-01
   0.348E+02 -.120E+02 -.125E-03   -.354E+02 0.124E+02 -.595E-04   0.658E+00 -.381E+00 0.168E-04   -.211E-01 0.284E-03 0.103E-03
   -.348E+02 0.120E+02 0.219E-04   0.354E+02 -.124E+02 0.101E-04   -.658E+00 0.381E+00 -.168E-04   0.210E-01 -.254E-03 -.742E-04
   0.348E+02 0.120E+02 0.230E-04   -.354E+02 -.124E+02 0.101E-04   0.658E+00 0.381E+00 -.170E-04   -.210E-01 -.280E-03 -.749E-04
   -.348E+02 -.120E+02 -.126E-03   0.354E+02 0.124E+02 -.595E-04   -.658E+00 -.381E+00 0.170E-04   0.210E-01 0.283E-03 0.104E-03
   -.227E-05 -.196E-04 0.732E-05   -.946E-05 -.823E-04 0.310E-04   0.000E+00 0.000E+00 0.000E+00   0.550E-05 0.743E-04 -.281E-04
   -.186E-04 -.536E-05 0.104E-04   -.780E-04 -.228E-04 0.438E-04   0.000E+00 0.000E+00 0.000E+00   0.712E-04 0.191E-04 -.398E-04
   -.404E-07 -.189E-04 0.329E-05   -.251E-06 -.790E-04 0.141E-04   0.000E+00 0.000E+00 0.000E+00   -.269E-05 0.712E-04 -.115E-04
   -.208E-04 -.465E-05 0.241E-06   -.872E-04 -.195E-04 0.123E-05   0.000E+00 0.000E+00 0.000E+00   0.793E-04 0.160E-04 0.197E-06
   -.940E+01 -.266E+02 0.159E-04   0.945E+01 0.266E+02 0.141E-04   -.734E-01 0.577E-01 0.179E-05   0.241E-01 -.718E-02 -.881E-04
   0.940E+01 0.266E+02 -.151E-03   -.945E+01 -.266E+02 -.367E-04   0.734E-01 -.577E-01 -.179E-05   -.241E-01 0.715E-02 0.141E-03
   -.940E+01 0.266E+02 -.151E-03   0.945E+01 -.266E+02 -.367E-04   -.734E-01 -.577E-01 -.178E-05   0.241E-01 0.713E-02 0.140E-03
   0.940E+01 -.266E+02 0.155E-04   -.945E+01 0.266E+02 0.141E-04   0.734E-01 0.577E-01 0.178E-05   -.241E-01 -.716E-02 -.877E-04
   0.129E-03 -.195E-03 -.549E-03   0.178E-14 0.284E-13 -.185E-13   0.000E+00 0.000E+00 0.000E+00   0.961E-04 0.146E-03 0.530E-04

 POSITION                                       TOTAL-FORCE (eV/Angst)
      1.66797      2.69903      6.76746         0.006883      0.002172     -0.009636
      7.00713      6.12497      5.75834        -0.006883     -0.002172      0.009636
      6.00552      1.71297      5.75834         0.006883     -0.002172      0.009636
      2.66958      7.11103      6.76746        -0.006883      0.002172     -0.009636
      7.00713      6.12497      0.50456        -0.006882     -0.002172     -0.009635
      1.66797      2.69903     12.02124         0.006882      0.002172      0.009635
      2.66958      7.11103     12.02124        -0.006883      0.002172      0.009636
      6.00552      1.71297      0.50456         0.006883     -0.002172     -0.009636
      7.96010      0.00066      9.39435        -0.010096      0.004805     -0.000003
      0.71500      8.82334      3.13145         0.010096     -0.004805      0.000003
      3.62255      4.41134      3.13145        -0.010095     -0.004805      0.000003
      5.05255      4.41266      9.39435         0.010095      0.004805     -0.000003
      0.00000      0.00000      6.26290         0.000000      0.000000      0.000000
      4.33755      4.41200      6.26290         0.000000      0.000000      0.000000
      0.00000      0.00000      0.00000         0.000000      0.000000      0.000000
      4.33755      4.41200      0.00000         0.000000      0.000000      0.000000
      8.48474      3.74480      3.13145         0.000341      0.000908     -0.000004
      0.19036      5.07920      9.39435        -0.000341     -0.000908      0.000004
      4.14719      0.66720      9.39435         0.000341     -0.000908      0.000004
      4.52791      8.15680      3.13145        -0.000341      0.000908     -0.000004
    total drift:                                0.000225     -0.000049     -0.000496

  FREE ENERGIE OF THE ION-ELECTRON SYSTEM (eV)
  free  energy   TOTEN  =       -60.31968323 eV

  energy  without entropy=      -60.31968323  energy(sigma->0) =      -60.31968323

 Spin-Orbit-Coupling matrix elements

 Ion:    1  E_soc:     -0.2714509
 l=   1
     0.0000000    -0.0445779    -0.0465520
    -0.0445779     0.0000000    -0.0446071
    -0.0465520    -0.0446071     0.0000000
 l=   2
     0.0000000     0.0000031     0.0000000     0.0000030     0.0000116
     0.0000031     0.0000000     0.0000009    -0.0000019    -0.0000029
     0.0000000     0.0000009     0.0000000     0.0000009     0.0000000
     0.0000030    -0.0000019     0.0000009     0.0000000    -0.0000031
     0.0000116    -0.0000029     0.0000000    -0.0000031     0.0000000
 l=   3
     0.0000000     0.0000000     0.0000000     0.0000000     0.0000000     0.0000000     0.0000000
     0.0000000     0.0000000     0.0000000     0.0000000     0.0000000     0.0000000     0.0000000
     0.0000000     0.0000000     0.0000000     0.0000000     0.0000000     0.0000000     0.0000000
     0.0000000     0.0000000     0.0000000     0.0000000     0.0000000     0.0000000     0.0000000
     0.0000000     0.0000000     0.0000000     0.0000000     0.0000000     0.0000000     0.0000000
     0.0000000     0.0000000     0.0000000     0.0000000     0.0000000     0.0000000     0.0000000
     0.0000000     0.0000000     0.0000000     0.0000000     0.0000000     0.0000000     0.0000000

[...]

 Ion:   20  E_soc:     -0.2837811
 l=   1
     0.0000000    -0.0472298    -0.0472605
    -0.0472298     0.0000000    -0.0472213
    -0.0472605    -0.0472213     0.0000000
 l=   2
     0.0000000    -0.0000142     0.0000000    -0.0000093    -0.0000518
    -0.0000142     0.0000000    -0.0000400    -0.0000110    -0.0000127
     0.0000000    -0.0000400     0.0000000    -0.0000299     0.0000000
    -0.0000093    -0.0000110    -0.0000299     0.0000000    -0.0000102
    -0.0000518    -0.0000127     0.0000000    -0.0000102     0.0000000
 l=   3
     0.0000000     0.0000000     0.0000000     0.0000000     0.0000000     0.0000000     0.0000000
     0.0000000     0.0000000     0.0000000     0.0000000     0.0000000     0.0000000     0.0000000
     0.0000000     0.0000000     0.0000000     0.0000000     0.0000000     0.0000000     0.0000000
     0.0000000     0.0000000     0.0000000     0.0000000     0.0000000     0.0000000     0.0000000
     0.0000000     0.0000000     0.0000000     0.0000000     0.0000000     0.0000000     0.0000000
     0.0000000     0.0000000     0.0000000     0.0000000     0.0000000     0.0000000     0.0000000
     0.0000000     0.0000000     0.0000000     0.0000000     0.0000000     0.0000000     0.0000000

 total charge

[...]

 magnetization (x)

[...]

 magnetization (y)

[...]

 magnetization (z)

# of ion       s       p       d       tot
    1       -0.000   0.000   0.000   0.000
    2        0.000  -0.000  -0.000  -0.000
    3        0.000   0.000   0.000   0.000
    4       -0.000  -0.000  -0.000  -0.000
    5        0.000  -0.000  -0.000  -0.000
    6       -0.000   0.000   0.000   0.000
    7       -0.000  -0.000  -0.000  -0.000
    8        0.000   0.000   0.000   0.000
    9        0.000   0.000  -0.000   0.000
   10       -0.000  -0.000   0.000  -0.000
   11        0.000  -0.000  -0.000  -0.000
   12       -0.000   0.000   0.000   0.000
   13        0.000  -0.000   0.000   0.000
   14        0.000   0.000   0.000   0.000
   15        0.000  -0.000   0.000   0.000
   16        0.000  -0.000   0.000   0.000
   17        0.000   0.000   0.000   0.000
   18       -0.000  -0.000  -0.000  -0.000
   19        0.000  -0.000  -0.000  -0.000
   20       -0.000   0.000   0.000   0.000
tot         -0.000  -0.000   0.000  -0.000