 vasp.5.4.4.18Apr17-6-g9f103f2a35 (build Jun 20 2018 15:01:45) complex

 executed on             LinuxIFC date 2019.11.03  22:39:20

 INCAR:
 POTCAR:    PAW_PBE I 08Apr2002
 POTCAR:    PAW_PBE Pb_d 06Sep2000
 POTCAR:    PAW_PBE Cs_sv 08Apr2002

 POTCAR:    PAW_PBE I 08Apr2002
   VRHFIN =I : s2p5

   TITEL  = PAW_PBE I 08Apr2002
   POMASS =  126.904; ZVAL   =    7.000    mass and valenz
   ENMAX  =  175.647; ENMIN  =  131.735 eV

 POTCAR:    PAW_PBE Pb_d 06Sep2000
   VRHFIN =Pb:

   TITEL  = PAW_PBE Pb_d 06Sep2000
   POMASS =  207.200; ZVAL   =   14.000    mass and valenz
   ENMAX  =  237.835; ENMIN  =  178.376 eV

 POTCAR:    PAW_PBE Cs_sv 08Apr2002
   VRHFIN =Cs: 5s5p6s

   TITEL  = PAW_PBE Cs_sv 08Apr2002
   POMASS =  132.900; ZVAL   =    9.000    mass and valenz
   ENMAX  =  220.318; ENMIN  =  165.238 eV

  PAW_PBE I 08Apr2002                   :
  PAW_PBE Pb_d 06Sep2000                :
  PAW_PBE Cs_sv 08Apr2002               :

 POSCAR: CsPbI3_325K
  positions in direct lattice
  velocities in cartesian coordinates
 exchange correlation table for  LEXCH =        8
   RHO(1)=    0.500       N(1)  =     2000
   RHO(2)=  100.500       N(2)  =     4000

 ion  position               nearest neighbor table
   1  0.192  0.306  0.540-  14 3.21  13 3.21
   2  0.808  0.694  0.460-  14 3.21  13 3.21
   3  0.692  0.194  0.460-  13 3.21  14 3.21
   4  0.308  0.806  0.540-  13 3.21  14 3.21
   5  0.808  0.694  0.040-  16 3.21  15 3.21
   6  0.192  0.306  0.960-  16 3.21  15 3.21
   7  0.308  0.806  0.960-  15 3.21  16 3.21
   8  0.692  0.194  0.040-  15 3.21  16 3.21
   9  0.918  0.000  0.750-  15 3.21  13 3.21
  10  0.082  1.000  0.250-  13 3.21  15 3.21
  11  0.418  0.500  0.250-  14 3.21  16 3.21
  12  0.582  0.500  0.750-  16 3.21  14 3.21
  13  0.000  0.000  0.500-   3 3.21   4 3.21  10 3.21   9 3.21   1 3.21   2 3.21
  14  0.500  0.500  0.500-   2 3.21   1 3.21  11 3.21  12 3.21   3 3.21   4 3.21
  15  0.000  0.000  0.000-   8 3.21   7 3.21   9 3.21  10 3.21   6 3.21   5 3.21
  16  0.500  0.500  0.000-   5 3.21   6 3.21  12 3.21  11 3.21   8 3.21   7 3.21
  17  0.978  0.424  0.250-
  18  0.022  0.576  0.750-
  19  0.478  0.076  0.750-
  20  0.522  0.924  0.250-

  LATTYP: Found a simple orthorhombic cell.
 ALAT       =     8.6751003265
 B/A-ratio  =     1.0171640703
 C/A-ratio  =     1.4438795264

  Lattice vectors:

 A1 = (   8.6751003265,   0.0000000000,   0.0000000000)
 A2 = (   0.0000000000,   8.8240003586,   0.0000000000)
 A3 = (   0.0000000000,   0.0000000000,  12.5257997513)

Analysis of symmetry for initial positions (statically):
 Subroutine PRICEL returns:
 Original cell was already a primitive cell.

 Routine SETGRP: Setting up the symmetry group for a
 simple orthorhombic supercell.

 Subroutine GETGRP returns: Found  8 space group operations
 (whereof  2 operations were pure point group operations)
 out of a pool of  8 trial point group operations.

The static configuration has the point symmetry S_2 .
 The point group associated with its full space group is D_2h.

Analysis of symmetry for dynamics (positions and initial velocities):
 Subroutine PRICEL returns:
 Original cell was already a primitive cell.

 Routine SETGRP: Setting up the symmetry group for a
 simple orthorhombic supercell.

 Subroutine GETGRP returns: Found  8 space group operations
 (whereof  2 operations were pure point group operations)
 out of a pool of  8 trial point group operations.

The dynamic configuration has the point symmetry S_2 .
 The point group associated with its full space group is D_2h.

 Subroutine INISYM returns: Found  8 space group operations
 (whereof  2 operations are pure point group operations),
 and found     1 'primitive' translations

 KPOINTS: K-Path Generated by VASPKIT.
  interpolating k-points between supplied coordinates
  k-points in reciprocal lattice
Space group operators:
 irot       det(A)        alpha          n_x          n_y          n_z        tau_x        tau_y        tau_z
    1     1.000000     0.000000     1.000000     0.000000     0.000000     0.000000     0.000000     0.000000
    2    -1.000000     0.000000     1.000000     0.000000     0.000000     0.000000     0.000000     0.000000
    3     1.000000   180.000000     0.000000     0.000000     1.000000     0.000000     0.000000     0.500000
    4    -1.000000   180.000000     0.000000     0.000000     1.000000     0.000000     0.000000     0.500000
    5     1.000000   180.000000     0.000000     1.000000     0.000000     0.500000     0.500000     0.500000
    6    -1.000000   180.000000     0.000000     1.000000     0.000000     0.500000     0.500000     0.500000
    7     1.000000   179.999999     1.000000     0.000000     0.000000     0.500000     0.500000     0.000000
    8    -1.000000   179.999999     1.000000     0.000000     0.000000     0.500000     0.500000     0.000000

 SYSTEM =  diamond
 POSCAR =  CsPbI3_325K

 Startparameter for this run:
   NWRITE =      2    write-flag & timer
   PREC   = accura    normal or accurate (medium, high low for compatibility)
   ISTART =      0    job   : 0-new  1-cont  2-samecut
   ICHARG =     11    charge: 1-file 2-atom 10-const
   ISPIN  =      1    spin polarized calculation?
   LNONCOLLINEAR =      F non collinear calculations
   LSORBIT =      F    spin-orbit coupling
   INIWAV =      1    electr: 0-lowe 1-rand  2-diag
   LASPH  =      F    aspherical Exc in radial PAW
   METAGGA=      F    non-selfconsistent MetaGGA calc.

 Electronic Relaxation 1
   ENCUT  =  520.0 eV  38.22 Ry    6.18 a.u.  16.13 16.41 23.29*2*pi/ulx,y,z
   ENINI  =  520.0     initial cutoff
   ENAUG  =  407.9 eV  augmentation charge cutoff
   NELM   =     60;   NELMIN=  2; NELMDL=  0     # of ELM steps
   EDIFF  = 0.1E-05   stopping-criterion for ELM
   LREAL  =      F    real-space projection
   NLSPLINE    = F    spline interpolate recip. space projectors
   LCOMPAT=      F    compatible to vasp.4.4
   GGA_COMPAT  = T    GGA compatible to vasp.4.4-vasp.4.6
   LMAXPAW     = -100 max onsite density
   LMAXMIX     =    2 max onsite mixed and CHGCAR
   VOSKOWN=      0    Vosko Wilk Nusair interpolation
   ROPT   =    0.00000   0.00000   0.00000
 Ionic relaxation
   EDIFFG = 0.1E-04   stopping-criterion for IOM
   NSW    =      0    number of steps for IOM
   NBLOCK =      1;   KBLOCK =      1    inner block; outer block
   IBRION =     -1    ionic relax: 0-MD 1-quasi-New 2-CG
   NFREE  =      1    steps in history (QN), initial steepest desc. (CG)
   ISIF   =      2    stress and relaxation
   IWAVPR =     10    prediction:  0-non 1-charg 2-wave 3-comb
   ISYM   =      2    0-nonsym 1-usesym 2-fastsym
   LCORR  =      T    Harris-Foulkes like correction to forces

   POTIM  = 0.1000    time-step for ionic-motion
   TEIN   =    0.0    initial temperature
   TEBEG  =    0.0;   TEEND  =   0.0 temperature during run
   SMASS  =  -3.00    Nose mass-parameter (am)
   estimated Nose-frequenzy (Omega)   =  0.10E-29 period in steps =****** mass=  -0.172E-26a.u.
   SCALEE = 1.0000    scale energy and forces
   NPACO  =    256;   APACO  = 16.0  distance and # of slots for P.C.
   PSTRESS=    0.0 pullay stress

  Mass of Ions in am
   POMASS = 126.90207.20132.90
  Ionic Valenz
   ZVAL   =   7.00 14.00  9.00
  Atomic Wigner-Seitz radii
  virtual crystal weights
   VCA    =   1.00  1.00  1.00
   NELECT =     176.0000    total number of electrons
   NUPDOWN=      -1.0000    fix difference up-down

 DOS related values:
   EMIN   =  10.00;   EMAX   =-10.00  energy-range for DOS
   EFERMI =   0.00
   ISMEAR =     1;   SIGMA  =   0.20  broadening in eV -4-tet -1-fermi 0-gaus

 Electronic relaxation 2 (details)
   IALGO  =     38    algorithm
   LDIAG  =      T    sub-space diagonalisation (order eigenvalues)
   LSUBROT=      F    optimize rotation matrix (better conditioning)
   TURBO    =      0    0=normal 1=particle mesh
   IRESTART =      0    0=no restart 2=restart with 2 vectors
   NREBOOT  =      0    no. of reboots
   NMIN     =      0    reboot dimension
   EREF     =   0.00    reference energy to select bands
   IMIX   =      4    mixing-type and parameters
     AMIX     =   0.40;   BMIX     =  1.00
     AMIX_MAG =   1.60;   BMIX_MAG =  1.00
     AMIN     =   0.10
     WC   =   100.;   INIMIX=   1;  MIXPRE=   1;  MAXMIX= -45

 Intra band minimization:
   WEIMIN = 0.0000     energy-eigenvalue tresh-hold
   EBREAK =  0.21E-08  absolut break condition
   DEPER  =   0.30     relativ break condition

   TIME   =   0.40     timestep for ELM

  volume/ion in A,a.u.               =      47.94       323.53
  Fermi-wavevector in a.u.,A,eV,Ry     =   0.930388  1.758178 11.777489  0.865621
  Thomas-Fermi vector in A             =   2.056771

 Write flags
   LWAVE        =      T    write WAVECAR
   LDOWNSAMPLE  =      F    k-point downsampling of WAVECAR
   LCHARG       =      T    write CHGCAR
   LVTOT        =      F    write LOCPOT, total local potential
   LVHAR        =      F    write LOCPOT, Hartree potential only
   LELF         =      F    write electronic localiz. function (ELF)
   LORBIT       =     10    0 simple, 1 ext, 2 COOP (PROOUT), +10 PAW based schemes

 Dipole corrections
   LMONO  =      F    monopole corrections only (constant potential shift)
   LDIPOL =      F    correct potential (dipole corrections)
   IDIPOL =      0    1-x, 2-y, 3-z, 4-all directions
   EPSILON=  1.0000000 bulk dielectric constant

 Exchange correlation treatment:
   GGA     =    --    GGA type
   VOSKOWN=      0    Vosko Wilk Nusair interpolation
   LHFCALC =     F    Hartree Fock is set to
   LHFONE  =     F    Hartree Fock one center treatment
   AEXX    =    0.0000 exact exchange contribution

 Linear response parameters
   LEPSILON=     F    determine dielectric tensor
   LRPA    =     F    only Hartree local field effects (RPA)
   LNABLA  =     F    use nabla operator in PAW spheres
   LVEL    =     F    velocity operator in full k-point grid
   LINTERFAST=   F  fast interpolation
   KINTER  =     0    interpolate to denser k-point grid
   CSHIFT  =0.1000    complex shift for real part using Kramers Kronig
   OMEGAMAX=  -1.0    maximum frequency
   DEG_THRESHOLD= 0.2000000E-02 threshold for treating states as degnerate
   RTIME   =   -0.100 relaxation time in fs
  (WPLASMAI=    0.000 imaginary part of plasma frequency in eV, 0.658/RTIME)
   DFIELD  = 0.0000000 0.0000000 0.0000000 field for delta impulse in time

 Orbital magnetization related:
   ORBITALMAG=     F  switch on orbital magnetization
   LCHIMAG   =     F  perturbation theory with respect to B field
   DQ        =  0.001000  dq finite difference perturbation B field
   LLRAUG    =     F  two centre corrections for induced B field

 Static calculation
 charge density and potential remain constant during run
 non-spin polarized calculation
 Variant of blocked Davidson
 Davidson routine will perform the subspace rotation
 perform sub-space diagonalisation
    after iterative eigenvector-optimisation
 no mixing
 using additional bands           32
 reciprocal scheme for non local part
 use partial core corrections
 calculate Harris-corrections to forces
   (improved forces if not selfconsistent)
 use gradient corrections
[...]

 First call to EWALD:  gamma=   0.180
 Maximum number of real-space cells 3x 3x 2
 Maximum number of reciprocal cells 2x 3x 3

--------------------------------------- Iteration      1(   1)  ---------------------------------------

 eigenvalue-minimisations  : 57600
 total energy-change (2. order) : 0.1470775E+04  (-0.7023409E+04)
 number of electron     175.9999984 magnetization
 augmentation part      175.9999984 magnetization

 Free energy of the ion-electron system (eV)
  alpha Z        PSCENC =       274.57589780
  Ewald energy   TEWEN  =     -8733.92648156
  -Hartree energ DENC   =     -3540.45062764
  -exchange      EXHF   =         0.00000000
  -V(xc)+E(xc)   XCENC  =        35.98679021
  PAW double counting   =     11933.82645364   -11520.60566502
  entropy T*S    EENTRO =         0.00238196
  eigenvalues    EBANDS =       361.77602809
  atomic energy  EATOM  =     12659.59018207
  Solvation  Ediel_sol  =         0.00000000
  free energy    TOTEN  =      1470.77495956 eV

  energy without entropy =     1470.77257760  energy(sigma->0) =     1470.77416557

[...]

 eigenvalue-minimisations  : 68520
 total energy-change (2. order) :-0.1352758E+04  (-0.1307801E+04)
 number of electron     175.9999984 magnetization
 augmentation part      175.9999984 magnetization

[...]

--------------------------------------- Iteration      1(   9)  ---------------------------------------

 eigenvalue-minimisations  : 53952
 total energy-change (2. order) :-0.5937363E-07  (-0.5948665E-07)
 number of electron     175.9999984 magnetization
 augmentation part      175.9999984 magnetization

 Free energy of the ion-electron system (eV)
  alpha Z        PSCENC =       274.57589780
  Ewald energy   TEWEN  =     -8733.92648156
  -Hartree energ DENC   =     -3540.45062764
  -exchange      EXHF   =         0.00000000
  -V(xc)+E(xc)   XCENC  =        35.98679021
  PAW double counting   =     11933.82645364   -11520.60566502
  entropy T*S    EENTRO =         0.00205265
  eigenvalues    EBANDS =     -1165.54822839
  atomic energy  EATOM  =     12659.59018207
  Solvation  Ediel_sol  =         0.00000000
  free energy    TOTEN  =       -56.54962624 eV

  energy without entropy =      -56.55167889  energy(sigma->0) =      -56.55031045

 average (electrostatic) potential at core
  the test charge radii are     1.1875  1.1541  1.1312
  (the norm of the test charge is              1.0000)
       1 -93.2415       2 -93.2415       3 -93.2415       4 -93.2415       5 -93.2415
       6 -93.2415       7 -93.2415       8 -93.2415       9 -93.2283      10 -93.2283
      11 -93.2283      12 -93.2283      13 -95.4128      14 -95.4128      15 -95.4128
      16 -95.4128      17 -48.8051      18 -48.8051      19 -48.8051      20 -48.8051

 E-fermi :   1.7541     XC(G=0):  -7.5284     alpha+bet : -7.7161

 k-point     1 :       0.0000    0.0000    0.0000
  band No.  band energies     occupation
      1     -19.0589      2.00000
      2     -19.0584      2.00000
      3     -19.0574      2.00000
      4     -19.0570      2.00000
      5     -14.8756      2.00000
      6     -14.8743      2.00000
      7     -14.8741      2.00000
      8     -14.8700      2.00000
      9     -14.8653      2.00000
     10     -14.8596      2.00000
     11     -14.8580      2.00000
     12     -14.8579      2.00000
     13     -14.8308      2.00000
     14     -14.8305      2.00000
     15     -14.8303      2.00000
     16     -14.8300      2.00000
     17     -14.8255      2.00000
     18     -14.8252      2.00000
     19     -14.8250      2.00000
     20     -14.8248      2.00000
     21     -14.8215      2.00000
     22     -14.8213      2.00000
     23     -14.8207      2.00000
     24     -14.8205      2.00000
     25     -10.3354      2.00000
     26     -10.1629      2.00000
     27      -9.9135      2.00000
     28      -9.8799      2.00000
     29      -9.8757      2.00000
     30      -9.8654      2.00000
     31      -9.8576      2.00000
     32      -9.8453      2.00000
     33      -9.8451      2.00000
     34      -9.6784      2.00000
     35      -9.6727      2.00000
     36      -9.6686      2.00000
     37      -6.5502      2.00000
     38      -6.1047      2.00000
     39      -5.9260      2.00000
     40      -5.9215      2.00000
     41      -5.9166      2.00000
     42      -5.9122      2.00000
     43      -5.9071      2.00000
     44      -5.9045      2.00000
     45      -5.9030      2.00000
     46      -5.8936      2.00000
     47      -5.8833      2.00000
     48      -5.8795      2.00000
     49      -5.8634      2.00000
     50      -5.8592      2.00000
     51      -5.6059      2.00000
     52      -5.1661      2.00000
     53      -1.5656      2.00000
     54      -1.5596      2.00000
     55      -1.4742      2.00000
     56      -1.4350      2.00000
     57      -1.3226      2.00000
     58      -1.2793      2.00000
     59      -0.4720      2.00000
     60      -0.2286      2.00000
[...]
    106       6.7839     -0.00000
    107       6.8212     -0.00000
    108       7.0500     -0.00000
    109       7.0572     -0.00000
    110       7.1146     -0.00000
    111       7.2575      0.00000
    112       7.2936      0.00000
    113       7.4319      0.00000
    114       7.4960      0.00000
    115       7.5627      0.00000
    116       7.6348      0.00000
    117       7.8292      0.00000
    118       7.8555      0.00000
    119       7.8796      0.00000
    120       8.0726      0.00000

[...]

 k-point   240 :       0.5000    0.5000    0.5000
  band No.  band energies     occupation
      1     -19.0579      2.00000
      2     -19.0579      2.00000
      3     -19.0579      2.00000
      4     -19.0579      2.00000
      5     -14.8716      2.00000
      6     -14.8716      2.00000
      7     -14.8716      2.00000
      8     -14.8716      2.00000
      9     -14.8621      2.00000
     10     -14.8621      2.00000
     11     -14.8621      2.00000
     12     -14.8621      2.00000
     13     -14.8304      2.00000
     14     -14.8304      2.00000
     15     -14.8304      2.00000
     16     -14.8304      2.00000
     17     -14.8252      2.00000
     18     -14.8252      2.00000
     19     -14.8252      2.00000
     20     -14.8252      2.00000
     21     -14.8210      2.00000
     22     -14.8210      2.00000
     23     -14.8210      2.00000
     24     -14.8210      2.00000
     25     -10.0759      2.00000
     26     -10.0759      2.00000
     27     -10.0759      2.00000
     28     -10.0759      2.00000
     29      -9.8828      2.00000
     30      -9.8828      2.00000
     31      -9.8828      2.00000
     32      -9.8828      2.00000
     33      -9.7128      2.00000
     34      -9.7128      2.00000
     35      -9.7128      2.00000
     36      -9.7128      2.00000
     37      -5.9774      2.00000
     38      -5.9774      2.00000
     39      -5.9774      2.00000
     40      -5.9774      2.00000
     41      -5.9082      2.00000
     42      -5.9082      2.00000
     43      -5.9082      2.00000
     44      -5.9082      2.00000
     45      -5.8725      2.00000
     46      -5.8725      2.00000
     47      -5.8725      2.00000
     48      -5.8725      2.00000
     49      -5.7865      2.00000
     50      -5.7865      2.00000
     51      -5.7865      2.00000
     52      -5.7865      2.00000
     53      -1.3385      2.00000
     54      -1.3385      2.00000
     55      -1.3385      2.00000
     56      -1.3385      2.00000
     57      -0.7475      2.00000
     58      -0.7475      2.00000
     59      -0.7475      2.00000
     60      -0.7475      2.00000
[...]
    106       7.0523     -0.00000
    107       7.0523     -0.00000
    108       7.0523     -0.00000
    109       7.2270      0.00000
    110       7.2270      0.00000
    111       7.2270      0.00000
    112       7.2270      0.00000
    113       7.5363      0.00000
    114       7.5363      0.00000
    115       7.5363      0.00000
    116       7.5363      0.00000
    117       7.8929      0.00000
    118       7.8929      0.00000
    119       7.8929      0.00000
    120       7.8929      0.00000

 soft charge-density along one line, spin component           1
         0         1         2         3         4         5         6         7         8         9
 total charge-density along one line

------------------------ aborting loop because EDIFF is reached ----------------------------------------

 total charge

# of ion       s       p       d       tot
    1        1.505   2.804   0.007   4.316
    2        1.505   2.804   0.007   4.316
    3        1.505   2.804   0.007   4.316
    4        1.505   2.804   0.007   4.316
    5        1.505   2.804   0.007   4.316
    6        1.505   2.804   0.007   4.316
    7        1.505   2.804   0.007   4.316
    8        1.505   2.804   0.007   4.316
    9        1.505   2.806   0.007   4.318
   10        1.505   2.806   0.007   4.318
   11        1.505   2.806   0.007   4.318
   12        1.505   2.806   0.007   4.318
   13        1.490   0.482   9.838  11.810
   14        1.490   0.482   9.838  11.810
   15        1.490   0.482   9.838  11.810
   16        1.490   0.482   9.838  11.810
   17        1.836   4.707   0.024   6.566
   18        1.836   4.707   0.024   6.566
   19        1.836   4.707   0.024   6.566
   20        1.836   4.707   0.024   6.566
tot         31.358  54.417  39.526 125.301

  FORCE on cell =-STRESS in cart. coord.  units (eV):
  Direction    XX          YY          ZZ          XY          YZ          ZX
  Alpha Z   274.57590   274.57590   274.57590
  Ewald   -2951.30367 -2917.58973 -2865.05795    -0.00001     0.00001     0.00000
  Hartree  1155.79484  1177.48240  1206.96156     0.00000    -0.00000    -0.00000
  E(xc)    -729.23250  -729.17661  -729.15367    -0.00000     0.00000    -0.00000
  Local   -1684.00561 -1741.11360 -1821.40268     0.00001    -0.00000     0.00000
  n-local  1991.45701  1992.16337  1991.70250    -0.00000    -0.00000    -0.00000
  augment    -3.38641    -3.94393    -3.59331    -0.00000    -0.00000    -0.00000
  Kinetic  1950.27521  1953.35835  1950.07091     0.00000    -0.00000    -0.00000
  Fock        0.00000     0.00000     0.00000     0.00000     0.00000     0.00000
  Total       4.17476     5.75614     4.10326     0.00000     0.00000     0.00000
  in kB       6.97584     9.61826     6.85637     0.00000     0.00000     0.00000

 VOLUME and BASIS-vectors are now :
  energy-cutoff  :      520.00
  volume of cell :      958.84
      direct lattice vectors                 reciprocal lattice vectors
     8.675100327  0.000000000  0.000000000     0.115272442  0.000000000  0.000000000
     0.000000000  8.824000359  0.000000000     0.000000000  0.113327285  0.000000000
     0.000000000  0.000000000 12.525799751     0.000000000  0.000000000  0.079835222

  length of vectors
     8.675100327  8.824000359 12.525799751     0.115272442  0.113327285  0.079835222

 FORCES acting on ions
    electron-ion (+dipol)            ewald-force                    non-local-force                 convergence-correction
   0.238E+02 -.190E+02 -.171E+02   -.244E+02 0.195E+02 0.175E+02   0.550E+00 -.480E+00 -.382E+00   0.126E-01 -.982E-02 -.755E-02
   -.238E+02 0.190E+02 0.171E+02   0.244E+02 -.195E+02 -.175E+02   -.550E+00 0.480E+00 0.382E+00   -.126E-01 0.975E-02 0.753E-02
   0.238E+02 0.190E+02 0.171E+02   -.244E+02 -.195E+02 -.175E+02   0.550E+00 0.480E+00 0.382E+00   0.126E-01 0.981E-02 0.754E-02
   -.238E+02 -.190E+02 -.171E+02   0.244E+02 0.195E+02 0.175E+02   -.550E+00 -.480E+00 -.382E+00   -.126E-01 -.976E-02 -.755E-02
   -.238E+02 0.190E+02 -.171E+02   0.244E+02 -.195E+02 0.175E+02   -.550E+00 0.480E+00 -.382E+00   -.126E-01 0.975E-02 -.754E-02
   0.238E+02 -.190E+02 0.171E+02   -.244E+02 0.195E+02 -.175E+02   0.550E+00 -.480E+00 0.382E+00   0.126E-01 -.981E-02 0.755E-02
   -.238E+02 -.190E+02 0.171E+02   0.244E+02 0.195E+02 -.175E+02   -.550E+00 -.480E+00 0.382E+00   -.126E-01 -.975E-02 0.754E-02
   0.238E+02 0.190E+02 -.171E+02   -.244E+02 -.195E+02 0.175E+02   0.550E+00 0.480E+00 -.382E+00   0.126E-01 0.981E-02 -.755E-02
   0.346E+02 -.120E+02 -.105E-03   -.354E+02 0.124E+02 -.595E-04   0.730E+00 -.385E+00 0.000E+00   0.276E-01 -.153E-03 0.416E-04
   -.346E+02 0.120E+02 0.238E-05   0.354E+02 -.124E+02 0.101E-04   -.730E+00 0.385E+00 0.442E-21   -.276E-01 0.184E-03 -.125E-04
   0.346E+02 0.120E+02 0.228E-05   -.354E+02 -.124E+02 0.101E-04   0.730E+00 0.385E+00 0.556E-21   0.276E-01 0.165E-03 -.125E-04
   -.346E+02 -.120E+02 -.105E-03   0.354E+02 0.124E+02 -.595E-04   -.730E+00 -.385E+00 0.000E+00   -.276E-01 -.162E-03 0.416E-04
   -.226E-05 -.196E-04 0.731E-05   -.946E-05 -.823E-04 0.310E-04   0.000E+00 0.000E+00 0.000E+00   0.458E-05 0.752E-04 -.286E-04
   -.185E-04 -.535E-05 0.104E-04   -.780E-04 -.228E-04 0.438E-04   0.000E+00 0.000E+00 0.000E+00   0.724E-04 0.187E-04 -.404E-04
   -.366E-07 -.188E-04 0.329E-05   -.251E-06 -.790E-04 0.141E-04   0.000E+00 0.000E+00 0.000E+00   -.369E-05 0.721E-04 -.113E-04
   -.208E-04 -.464E-05 0.244E-06   -.872E-04 -.195E-04 0.123E-05   0.000E+00 0.000E+00 0.000E+00   0.807E-04 0.156E-04 0.549E-06
   -.936E+01 -.266E+02 0.325E-05   0.945E+01 0.266E+02 0.141E-04   -.736E-01 0.515E-01 0.132E-22   -.124E-01 -.219E-02 -.169E-04
   0.936E+01 0.266E+02 -.139E-03   -.945E+01 -.266E+02 -.367E-04   0.736E-01 -.515E-01 0.000E+00   0.123E-01 0.216E-02 0.698E-04
   -.936E+01 0.266E+02 -.139E-03   0.945E+01 -.266E+02 -.367E-04   -.736E-01 -.515E-01 0.000E+00   -.123E-01 0.215E-02 0.698E-04
   0.936E+01 -.266E+02 0.330E-05   -.945E+01 0.266E+02 0.141E-04   0.736E-01 0.515E-01 0.513E-22   0.124E-01 -.218E-02 -.169E-04
   0.128E-03 -.195E-03 -.548E-03   0.178E-14 0.284E-13 -.185E-13   -.236E-15 -.555E-16 0.106E-20   0.965E-04 0.146E-03 0.527E-04

 POSITION                                       TOTAL-FORCE (eV/Angst)
      1.66797      2.69903      6.76746        -0.005847      0.003758      0.004302
      7.00713      6.12497      5.75834         0.005847     -0.003758     -0.004302
      6.00552      1.71297      5.75834        -0.005847     -0.003758     -0.004302
      2.66958      7.11103      6.76746         0.005847      0.003758      0.004302
      7.00713      6.12497      0.50456         0.005847     -0.003758      0.004302
      1.66797      2.69903     12.02124        -0.005847      0.003758     -0.004302
      2.66958      7.11103     12.02124         0.005847      0.003758     -0.004302
      6.00552      1.71297      0.50456        -0.005847     -0.003758      0.004302
      7.96010      0.00066      9.39435        -0.013202      0.000515      0.000000
      0.71500      8.82334      3.13145         0.013202     -0.000515      0.000000
      3.62255      4.41134      3.13145        -0.013202     -0.000515     -0.000000
      5.05255      4.41266      9.39435         0.013202      0.000515      0.000000
      0.00000      0.00000      6.26290        -0.000000      0.000000      0.000000
      4.33755      4.41200      6.26290        -0.000000      0.000000      0.000000
      0.00000      0.00000      0.00000        -0.000000      0.000000      0.000000
      4.33755      4.41200      0.00000        -0.000000      0.000000      0.000000
      8.48474      3.74480      3.13145         0.000441      0.000018      0.000000
      0.19036      5.07920      9.39435        -0.000441     -0.000018      0.000000
      4.14719      0.66720      9.39435         0.000441     -0.000018      0.000000
      4.52791      8.15680      3.13145        -0.000441      0.000018     -0.000000
    total drift:                                0.000225     -0.000049     -0.000495

  FREE ENERGIE OF THE ION-ELECTRON SYSTEM (eV)
  free  energy   TOTEN  =       -56.54962624 eV

  energy  without entropy=      -56.55167889  energy(sigma->0) =      -56.55031045

 writing wavefunctions

 total charge

# of ion       s       p       d       tot
    1        1.505   2.804   0.007   4.316
    2        1.505   2.804   0.007   4.316
    3        1.505   2.804   0.007   4.316
    4        1.505   2.804   0.007   4.316
    5        1.505   2.804   0.007   4.316
    6        1.505   2.804   0.007   4.316
    7        1.505   2.804   0.007   4.316
    8        1.505   2.804   0.007   4.316
    9        1.505   2.806   0.007   4.318
   10        1.505   2.806   0.007   4.318
   11        1.505   2.806   0.007   4.318
   12        1.505   2.806   0.007   4.318
   13        1.490   0.482   9.838  11.810
   14        1.490   0.482   9.838  11.810
   15        1.490   0.482   9.838  11.810
   16        1.490   0.482   9.838  11.810
   17        1.836   4.707   0.024   6.566
   18        1.836   4.707   0.024   6.566
   19        1.836   4.707   0.024   6.566
   20        1.836   4.707   0.024   6.566
tot         31.358  54.417  39.526 125.301