 vasp.5.4.4.18Apr17-6-g9f103f2a35 (build Aug 19 2019 13:40:55) complex

 executed on             LinuxIFC date 2020.04.13  19:14:15

 INCAR:
 POTCAR:    PAW_PBE Pb_d 06Sep2000
 POTCAR:    PAW_PBE I 08Apr2002
 POTCAR:    PAW_PBE Cs_sv 08Apr2002

 POTCAR:    PAW_PBE Pb_d 06Sep2000
   VRHFIN =Pb:

   TITEL  = PAW_PBE Pb_d 06Sep2000
   POMASS =  207.200; ZVAL   =   14.000    mass and valenz
   ENMAX  =  237.835; ENMIN  =  178.376 eV

 POTCAR:    PAW_PBE I 08Apr2002
   VRHFIN =I : s2p5

   TITEL  = PAW_PBE I 08Apr2002
   POMASS =  126.904; ZVAL   =    7.000    mass and valenz
   ENMAX  =  175.647; ENMIN  =  131.735 eV

 POTCAR:    PAW_PBE Cs_sv 08Apr2002
   VRHFIN =Cs: 5s5p6s

   TITEL  = PAW_PBE Cs_sv 08Apr2002
   POMASS =  132.900; ZVAL   =    9.000    mass and valenz
   ENMAX  =  220.318; ENMIN  =  165.238 eV

  PAW_PBE Pb_d 06Sep2000                :
  PAW_PBE I 08Apr2002                   :
  PAW_PBE Cs_sv 08Apr2002               :

 POSCAR: delta-Cesium_Lead_Iodide
  positions in direct lattice
  velocities in cartesian coordinates
 exchange correlation table for  LEXCH =        8
   RHO(1)=    0.500       N(1)  =     2000
   RHO(2)=  100.500       N(2)  =     4000

 ion  position               nearest neighbor table
   1  0.161  0.250  0.439-   9 3.10   7 3.24   7 3.24  14 3.28  14 3.28  13 3.37
   2  0.839  0.750  0.561-  10 3.10   8 3.24   8 3.24  13 3.28  13 3.28  14 3.37
   3  0.339  0.750  0.939-  11 3.10   5 3.24   5 3.24  16 3.28  16 3.28  15 3.37
   4  0.661  0.250  0.061-  12 3.10   6 3.24   6 3.24  15 3.28  15 3.28  16 3.37
   5  0.160  0.250  0.002-   3 3.24   3 3.24
   6  0.840  0.750  0.998-   4 3.24   4 3.24
   7  0.340  0.750  0.502-   1 3.24   1 3.24
   8  0.660  0.250  0.498-   2 3.24   2 3.24
   9  0.300  0.250  0.285-   1 3.10
  10  0.700  0.750  0.715-   2 3.10
  11  0.200  0.750  0.785-   3 3.10
  12  0.800  0.250  0.215-   4 3.10
  13  0.034  0.250  0.614-   2 3.28   2 3.28   1 3.37
  14  0.966  0.750  0.386-   1 3.28   1 3.28   2 3.37
  15  0.466  0.750  0.114-   4 3.28   4 3.28   3 3.37
  16  0.534  0.250  0.886-   3 3.28   3 3.28   4 3.37
  17  0.417  0.250  0.672-
  18  0.583  0.750  0.328-
  19  0.083  0.750  0.172-
  20  0.917  0.250  0.828-

  LATTYP: Found a simple orthorhombic cell.
 ALAT       =     4.7905001640
 B/A-ratio  =     2.1781024798
 C/A-ratio  =     3.7075459914

  Lattice vectors:

 A1 = (   0.0000000000,  -4.7905001640,   0.0000000000)
 A2 = ( -10.4342002869,   0.0000000000,   0.0000000000)
 A3 = (   0.0000000000,   0.0000000000, -17.7609996796)

Analysis of symmetry for initial positions (statically):
 Subroutine PRICEL returns:
 Original cell was already a primitive cell.

 Routine SETGRP: Setting up the symmetry group for a
 simple orthorhombic supercell.

 Subroutine GETGRP returns: Found  8 space group operations
 (whereof  2 operations were pure point group operations)
 out of a pool of  8 trial point group operations.

The static configuration has the point symmetry S_2 .
 The point group associated with its full space group is D_2h.

Analysis of symmetry for dynamics (positions and initial velocities):
 Subroutine PRICEL returns:
 Original cell was already a primitive cell.

[...]

The dynamic configuration has the point symmetry S_2 .
 The point group associated with its full space group is D_2h.

Analysis of structural, dynamic, and magnetic symmetry:
 Subroutine PRICEL returns:
 Original cell was already a primitive cell.

 Routine SETGRP: Setting up the symmetry group for a
 simple orthorhombic supercell.

 Subroutine GETGRP returns: Found  2 space group operations
 (whereof  2 operations were pure point group operations)
 out of a pool of  8 trial point group operations.

The (compounded) configuration has the point symmetry S_2 .

 Subroutine INISYM returns: Found  2 space group operations
 (whereof  2 operations are pure point group operations),
 and found     1 'primitive' translations

 KPOINTS: 0.060   2   3   1    4  0.060   72   12
  k-points in reciprocal lattice
Space group operators:
 irot       det(A)        alpha          n_x          n_y          n_z        tau_x        tau_y        tau_z
    1     1.000000     0.000000     1.000000     0.000000     0.000000     0.000000     0.000000     0.000000
    2    -1.000000     0.000000     1.000000     0.000000     0.000000     0.000000     0.000000     0.000000

 Subroutine IBZKPT_HF returns following result:

 Found     78 k-points in 1st BZ
 the following     78 k-points will be used (e.g. in the exchange kernel)
 Following reciprocal coordinates:   # in IRBZ
  0.000000  0.000000  0.000000    0.16666667   1 t-inv F
  0.500000  0.000000  0.000000    0.16666667   2 t-inv F
  0.000000  0.333333  0.000000    0.16666667   3 t-inv F
  0.500000  0.333333  0.000000    0.16666667   4 t-inv F
  0.000000  0.000000  0.000000    0.00000000   5 t-inv F
  0.125000  0.000000  0.000000    0.00000000   6 t-inv F
  0.250000  0.000000  0.000000    0.00000000   7 t-inv F
  0.375000  0.000000  0.000000    0.00000000   8 t-inv F
  0.500000  0.000000  0.000000    0.00000000   9 t-inv F
  0.500000  0.000000  0.000000    0.00000000  10 t-inv F
  0.500000  0.055556  0.000000    0.00000000  11 t-inv F
  0.500000  0.111111  0.000000    0.00000000  12 t-inv F
  0.500000  0.166667  0.000000    0.00000000  13 t-inv F
  0.500000  0.222222  0.000000    0.00000000  14 t-inv F
  0.500000  0.277778  0.000000    0.00000000  15 t-inv F
  0.500000  0.333333  0.000000    0.00000000  16 t-inv F
  0.500000  0.388889  0.000000    0.00000000  17 t-inv F
  0.500000  0.444444  0.000000    0.00000000  18 t-inv F
  0.500000  0.500000  0.000000    0.00000000  19 t-inv F
  0.500000  0.500000  0.000000    0.00000000  20 t-inv F
  0.375000  0.500000  0.000000    0.00000000  21 t-inv F
  0.250000  0.500000  0.000000    0.00000000  22 t-inv F
  0.125000  0.500000  0.000000    0.00000000  23 t-inv F
  0.000000  0.500000  0.000000    0.00000000  24 t-inv F
  0.000000  0.500000  0.000000    0.00000000  25 t-inv F
  0.000000  0.444444  0.000000    0.00000000  26 t-inv F
  0.000000  0.388889  0.000000    0.00000000  27 t-inv F
  0.000000  0.333333  0.000000    0.00000000  28 t-inv F
  0.000000  0.277778  0.000000    0.00000000  29 t-inv F
  0.000000  0.222222  0.000000    0.00000000  30 t-inv F
  0.000000  0.166667  0.000000    0.00000000  31 t-inv F
  0.000000  0.111111  0.000000    0.00000000  32 t-inv F
  0.000000  0.055556  0.000000    0.00000000  33 t-inv F
  0.000000  0.000000  0.000000    0.00000000  34 t-inv F
  0.000000  0.000000  0.000000    0.00000000  35 t-inv F
  0.000000  0.000000  0.250000    0.00000000  36 t-inv F
  0.000000  0.000000  0.500000    0.00000000  37 t-inv F
  0.000000  0.000000  0.500000    0.00000000  38 t-inv F
  0.125000  0.000000  0.500000    0.00000000  39 t-inv F
  0.250000  0.000000  0.500000    0.00000000  40 t-inv F
  0.375000  0.000000  0.500000    0.00000000  41 t-inv F
  0.500000  0.000000  0.500000    0.00000000  42 t-inv F
  0.500000  0.000000  0.500000    0.00000000  43 t-inv F
  0.500000  0.055556  0.500000    0.00000000  44 t-inv F
  0.500000  0.111111  0.500000    0.00000000  45 t-inv F
  0.500000  0.166667  0.500000    0.00000000  46 t-inv F
  0.500000  0.222222  0.500000    0.00000000  47 t-inv F
  0.500000  0.277778  0.500000    0.00000000  48 t-inv F
  0.500000  0.333333  0.500000    0.00000000  49 t-inv F
  0.500000  0.388889  0.500000    0.00000000  50 t-inv F
  0.500000  0.444444  0.500000    0.00000000  51 t-inv F
  0.500000  0.500000  0.500000    0.00000000  52 t-inv F
  0.500000  0.500000  0.500000    0.00000000  53 t-inv F
  0.375000  0.500000  0.500000    0.00000000  54 t-inv F
  0.250000  0.500000  0.500000    0.00000000  55 t-inv F
  0.125000  0.500000  0.500000    0.00000000  56 t-inv F
  0.000000  0.500000  0.500000    0.00000000  57 t-inv F
  0.000000  0.500000  0.500000    0.00000000  58 t-inv F
  0.000000  0.444444  0.500000    0.00000000  59 t-inv F
  0.000000  0.388889  0.500000    0.00000000  60 t-inv F
[...]
  0.000000  0.166667  0.500000    0.00000000  64 t-inv F
  0.000000  0.111111  0.500000    0.00000000  65 t-inv F
  0.000000  0.055556  0.500000    0.00000000  66 t-inv F
  0.000000  0.000000  0.500000    0.00000000  67 t-inv F
  0.500000  0.000000  0.000000    0.00000000  68 t-inv F
  0.500000  0.000000  0.250000    0.00000000  69 t-inv F
  0.500000  0.000000  0.500000    0.00000000  70 t-inv F
  0.000000  0.500000  0.000000    0.00000000  71 t-inv F
  0.000000  0.500000  0.250000    0.00000000  72 t-inv F
  0.000000  0.500000  0.500000    0.00000000  73 t-inv F
  0.500000  0.500000  0.000000    0.00000000  74 t-inv F
  0.500000  0.500000  0.250000    0.00000000  75 t-inv F
  0.500000  0.500000  0.500000    0.00000000  76 t-inv F
  0.000000 -0.333333  0.000000    0.16666667   3 t-inv F
 -0.500000 -0.333333  0.000000    0.16666667   4 t-inv F

 SYSTEM =  unknown system
 POSCAR =  delta-Cesium_Lead_Iodide

 Startparameter for this run:
   NWRITE =      2    write-flag & timer
   PREC   = normal    normal or accurate (medium, high low for compatibility)
   ISTART =      1    job   : 0-new  1-cont  2-samecut
   ICHARG =     11    charge: 1-file 2-atom 10-const
   ISPIN  =      1    spin polarized calculation?
   LNONCOLLINEAR =      T non collinear calculations
   LSORBIT =      T    spin-orbit coupling
   INIWAV =      1    electr: 0-lowe 1-rand  2-diag
   LASPH  =      F    aspherical Exc in radial PAW
   METAGGA=      F    non-selfconsistent MetaGGA calc.

 Electronic Relaxation 1
   ENCUT  =  520.0 eV  33.07 Ry    5.75 a.u.  18.05  8.29 30.72*2*pi/ulx,y,z
   ENINI  =  520.0     initial cutoff
   ENAUG  =  407.9 eV  augmentation charge cutoff
   NELM   =     60;   NELMIN=  2; NELMDL=  0     # of ELM steps
   EDIFF  = 0.1E-04   stopping-criterion for ELM
   LREAL  =      F    real-space projection
   NLSPLINE    = F    spline interpolate recip. space projectors
   LCOMPAT=      F    compatible to vasp.4.4
   GGA_COMPAT  = F    GGA compatible to vasp.4.4-vasp.4.6
   LMAXPAW     = -100 max onsite density
   LMAXMIX     =    4 max onsite mixed and CHGCAR
   VOSKOWN=      1    Vosko Wilk Nusair interpolation
   ROPT   =    0.00000   0.00000   0.00000
 Ionic relaxation
   EDIFFG = 0.1E-03   stopping-criterion for IOM
   NSW    =      0    number of steps for IOM
   NBLOCK =      1;   KBLOCK =      1    inner block; outer block
   IBRION =     -1    ionic relax: 0-MD 1-quasi-New 2-CG
   NFREE  =      0    steps in history (QN), initial steepest desc. (CG)
   ISIF   =      0    stress and relaxation
   IWAVPR =     10    prediction:  0-non 1-charg 2-wave 3-comb
   ISYM   =      3    0-nonsym 1-usesym 2-fastsym
   LCORR  =      T    Harris-Foulkes like correction to forces

   POTIM  = 0.1000    time-step for ionic-motion
   TEIN   =    0.0    initial temperature
   TEBEG  =    0.0;   TEEND  =   0.0 temperature during run
   SMASS  =  -3.00    Nose mass-parameter (am)
   estimated Nose-frequenzy (Omega)   =  0.10E-29 period in steps =****** mass=  -0.249E-26a.u.
   SCALEE = 1.0000    scale energy and forces
   NPACO  =    256;   APACO  = 16.0  distance and # of slots for P.C.
   PSTRESS=    0.0 pullay stress

  Mass of Ions in am
   POMASS = 207.20126.90132.90
[...]
  eigenvalues    EBANDS =     -1292.33013630
  atomic energy  EATOM  =     12642.33662683
  free energy    TOTEN  =       -70.98674365 eV

  energy without entropy =      -71.01138999  energy(sigma->0) =      -70.99495909
  exchange ACFDT corr.  =         0.00648543  see jH, gK, PRB 81, 115126

  average scaling for gradient   0.9901

 average (electrostatic) potential at core
  the test charge radii are     1.1541  1.1875  1.1312
  (the norm of the test charge is              1.0000)
       1 -88.9628       2 -88.9628       3 -88.9628       4 -88.9628       5 -89.0767
       6 -89.0767       7 -89.0767       8 -89.0767       9 -88.8558      10 -88.8559
      11 -88.8559      12 -88.8558      13 -89.2282      14 -89.2282      15 -89.2282
      16 -89.2282      17 -44.9625      18 -44.9625      19 -44.9625      20 -44.9625

 E-fermi :   1.6117     XC(G=0):  -6.6250     alpha+bet : -8.3336

 k-point     1 :       0.0000    0.0000    0.0000
  band No.  band energies     occupation
      1     -20.6225      1.00000
      2     -20.6225      1.00000
      3     -20.6220      1.00000
      4     -20.6220      1.00000
      5     -20.6204      1.00000
      6     -20.6204      1.00000
      7     -20.6199      1.00000
      8     -20.6199      1.00000
      9     -17.8483      1.00000
     10     -17.8483      1.00000
     11     -17.8483      1.00000
     12     -17.8483      1.00000
     13     -17.8477      1.00000
     14     -17.8477      1.00000
     15     -17.8476      1.00000
     16     -17.8476      1.00000
     17     -17.8340      1.00000
     18     -17.8340      1.00000
     19     -17.8340      1.00000
     20     -17.8340      1.00000
     21     -17.8328      1.00000
     22     -17.8328      1.00000
     23     -17.8328      1.00000
     24     -17.8328      1.00000
     25     -15.1732      1.00000
     26     -15.1732      1.00000
     27     -15.1730      1.00000
     28     -15.1730      1.00000
     29     -15.1668      1.00000
     30     -15.1668      1.00000
     31     -15.1667      1.00000
     32     -15.1667      1.00000
     33     -15.1652      1.00000
     34     -15.1652      1.00000
     35     -15.1651      1.00000
     36     -15.1651      1.00000
     37     -15.1625      1.00000
     38     -15.1625      1.00000
     39     -15.1624      1.00000
     40     -15.1624      1.00000
     41     -15.1352      1.00000
     42     -15.1352      1.00000
     43     -15.1352      1.00000
     44     -15.1352      1.00000
     45     -15.1320      1.00000
     46     -15.1320      1.00000
     47     -15.1320      1.00000
     48     -15.1320      1.00000
     49     -11.5559      1.00000
     50     -11.5558      1.00000
     51     -11.5218      1.00000
     52     -11.5217      1.00000
     53     -11.2111      1.00000
     54     -11.2110      1.00000
     55     -11.0954      1.00000
     56     -11.0953      1.00000
     57     -11.0616      1.00000
     58     -11.0615      1.00000
     59     -11.0589      1.00000
     60     -11.0588      1.00000
[...]
    226       8.6460      0.00000
    227       8.7030      0.00000
    228       8.7032      0.00000
    229       8.7827      0.00000
    230       8.7833      0.00000
    231       8.9589      0.00000
    232       9.0311      0.00000
    233       9.0499      0.00000
    234       9.0515      0.00000
    235       9.0549      0.00000
    236       9.1291      0.00000
    237       9.1525      0.00000
    238       9.2140      0.00000
    239       9.2351      0.00000
    240       9.2748      0.00000

[...]

 k-point    76 :       0.5000    0.5000    0.5000
  band No.  band energies     occupation
      1     -20.6021      1.00000
      2     -20.6021      1.00000
      3     -20.6021      1.00000
      4     -20.6020      1.00000
      5     -20.6013      1.00000
      6     -20.6012      1.00000
      7     -20.6010      1.00000
      8     -20.6008      1.00000
      9     -17.8278      1.00000
     10     -17.8278      1.00000
     11     -17.8278      1.00000
     12     -17.8278      1.00000
     13     -17.8266      1.00000
     14     -17.8265      1.00000
     15     -17.8265      1.00000
     16     -17.8265      1.00000
     17     -17.7925      1.00000
     18     -17.7924      1.00000
     19     -17.7923      1.00000
     20     -17.7922      1.00000
     21     -17.7910      1.00000
     22     -17.7910      1.00000
     23     -17.7909      1.00000
     24     -17.7908      1.00000
     25     -15.1593      1.00000
     26     -15.1593      1.00000
     27     -15.1592      1.00000
     28     -15.1592      1.00000
     29     -15.1534      1.00000
     30     -15.1533      1.00000
     31     -15.1533      1.00000
     32     -15.1533      1.00000
     33     -15.1277      1.00000
     34     -15.1276      1.00000
     35     -15.1275      1.00000
     36     -15.1275      1.00000
     37     -15.1216      1.00000
     38     -15.1216      1.00000
     39     -15.1215      1.00000
     40     -15.1215      1.00000
     41     -15.0831      1.00000
     42     -15.0830      1.00000
     43     -15.0828      1.00000
     44     -15.0827      1.00000
     45     -15.0822      1.00000
     46     -15.0822      1.00000
     47     -15.0819      1.00000
     48     -15.0818      1.00000
     49     -11.0697      1.00000
     50     -11.0696      1.00000
     51     -11.0677      1.00000
     52     -11.0676      1.00000
     53     -11.0570      1.00000
     54     -11.0569      1.00000
     55     -11.0563      1.00000
     56     -11.0562      1.00000
     57     -10.8346      1.00000
     58     -10.8345      1.00000
     59     -10.8342      1.00000
     60     -10.8340      1.00000
[...]
    226       8.8811      0.00000
    227       8.9801      0.00000
    228       9.1135      0.00000
    229       9.1913      0.00000
    230       9.2042      0.00000
    231       9.2634      0.00000
    232       9.3774      0.00000
    233       9.5658      0.00000
    234       9.5994      0.00000
    235       9.6954      0.00000
    236       9.6995      0.00000
    237       9.7491      0.00000
    238       9.9866      0.00000
    239      10.1440      0.00000
    240      10.1860      0.00000

 soft charge-density along one line, spin component           1
         0         1         2         3         4         5         6         7         8         9
 total charge-density along one line

[...]

 soft charge-density along one line, spin component           4
         0         1         2         3         4         5         6         7         8         9
 total charge-density along one line

------------------------ aborting loop because EDIFF is reached ----------------------------------------

 total charge

# of ion       s       p       d       tot
    1        1.526   0.459   9.843  11.828
    2        1.526   0.459   9.843  11.828
    3        1.526   0.459   9.843  11.828
    4        1.526   0.459   9.843  11.828
    5        1.505   2.881   0.007   4.392
    6        1.505   2.881   0.007   4.392
    7        1.505   2.881   0.007   4.392
    8        1.505   2.881   0.007   4.392
    9        1.502   2.896   0.005   4.403
   10        1.502   2.896   0.005   4.403
   11        1.502   2.896   0.005   4.403
   12        1.502   2.896   0.005   4.403
   13        1.508   2.868   0.008   4.383
   14        1.508   2.868   0.008   4.383
   15        1.508   2.868   0.008   4.383
   16        1.508   2.868   0.008   4.383
   17        2.291   4.720   0.025   7.035
   18        2.291   4.720   0.025   7.035
   19        2.291   4.720   0.025   7.035
   20        2.291   4.720   0.025   7.035
tot         33.326  55.294  39.553 128.172

 magnetization (x)

[...]

 magnetization (y)

[...]

 magnetization (z)

[...]

 VOLUME and BASIS-vectors are now :
  energy-cutoff  :      450.00
  volume of cell :      887.78
      direct lattice vectors                 reciprocal lattice vectors
    10.434200287  0.000000000  0.000000000     0.095838682  0.000000000  0.000000000
     0.000000000  4.790500164  0.000000000     0.000000000  0.208746470  0.000000000
     0.000000000  0.000000000 17.760999680     0.000000000  0.000000000  0.056303137

  length of vectors
    10.434200287  4.790500164 17.760999680     0.095838682  0.208746470  0.056303137

 FORCES acting on ions
    electron-ion (+dipol)            ewald-force                    non-local-force                 convergence-correction
   -.629E+02 -.937E-04 0.530E+02   0.607E+02 -.183E-04 -.506E+02   0.197E+01 -.245E-04 -.221E+01   0.110E-01 0.940E-04 -.847E-02
   0.629E+02 0.228E-03 -.530E+02   -.607E+02 0.183E-04 0.506E+02   -.197E+01 0.245E-04 0.221E+01   -.125E-01 -.337E-03 0.694E-02
   0.629E+02 0.233E-03 0.530E+02   -.607E+02 0.183E-04 -.506E+02   -.197E+01 0.256E-04 -.221E+01   -.112E-01 -.342E-03 -.404E-02
   -.629E+02 -.966E-04 -.530E+02   0.607E+02 -.183E-04 0.506E+02   0.197E+01 -.256E-04 0.221E+01   0.110E-01 0.978E-04 0.796E-02
   0.922E+02 -.406E-05 -.479E+02   -.940E+02 -.117E-04 0.486E+02   0.173E+01 0.722E-05 -.599E+00   0.338E-04 0.256E-04 -.228E-02
   -.922E+02 0.393E-04 0.479E+02   0.940E+02 0.117E-04 -.486E+02   -.173E+01 -.722E-05 0.599E+00   0.146E-03 -.268E-04 0.262E-02
   -.922E+02 0.348E-04 -.479E+02   0.940E+02 0.117E-04 0.486E+02   -.173E+01 -.569E-05 -.599E+00   0.131E-03 -.264E-04 -.241E-02
   0.922E+02 0.164E-05 0.479E+02   -.940E+02 -.117E-04 -.486E+02   0.173E+01 0.569E-05 0.599E+00   -.342E-04 0.259E-04 0.246E-02
   -.397E+02 0.180E-05 0.766E+02   0.405E+02 -.489E-05 -.781E+02   -.821E+00 0.643E-05 0.152E+01   -.138E-03 0.139E-04 -.338E-03
   0.397E+02 0.429E-04 -.766E+02   -.405E+02 0.489E-05 0.781E+02   0.821E+00 -.643E-05 -.152E+01   0.753E-04 -.253E-04 0.220E-03
   0.397E+02 0.411E-04 0.766E+02   -.405E+02 0.489E-05 -.781E+02   0.821E+00 -.487E-05 0.152E+01   0.493E-04 -.273E-04 -.350E-03
   -.397E+02 0.413E-05 -.766E+02   0.405E+02 -.489E-05 0.781E+02   -.821E+00 0.487E-05 -.152E+01   -.148E-03 0.136E-04 0.147E-03
   -.649E+02 -.722E-05 -.121E+03   0.662E+02 -.969E-05 0.123E+03   -.129E+01 0.929E-05 -.153E+01   -.103E-02 0.208E-04 0.483E-02
   0.649E+02 0.455E-04 0.121E+03   -.662E+02 0.969E-05 -.123E+03   0.129E+01 -.929E-05 0.153E+01   0.103E-02 -.274E-04 -.488E-02
   0.649E+02 0.416E-04 -.121E+03   -.662E+02 0.969E-05 0.123E+03   0.129E+01 -.644E-05 -.153E+01   0.920E-03 -.299E-04 0.487E-02
   -.649E+02 -.213E-05 0.121E+03   0.662E+02 -.969E-05 -.123E+03   -.129E+01 0.644E-05 0.153E+01   -.956E-03 0.248E-04 -.469E-02
   -.193E+00 0.335E-05 -.121E+02   0.290E+00 -.548E-05 0.123E+02   -.992E-01 -.219E-05 -.131E+00   0.109E-02 0.160E-04 0.610E-02
   0.193E+00 0.439E-04 0.121E+02   -.290E+00 0.548E-05 -.123E+02   0.992E-01 0.219E-05 0.131E+00   -.105E-02 -.413E-04 -.633E-02
   0.193E+00 0.446E-04 -.121E+02   -.290E+00 0.548E-05 0.123E+02   0.992E-01 0.195E-05 -.131E+00   -.886E-03 -.426E-04 0.609E-02
   -.193E+00 0.295E-05 0.121E+02   0.290E+00 -.548E-05 -.123E+02   -.992E-01 -.195E-05 0.131E+00   0.973E-03 0.161E-04 -.607E-02
   0.683E-03 0.605E-03 -.203E-02   0.422E-14 0.171E-14 0.462E-13   0.000E+00 0.000E+00 0.000E+00   -.145E-02 -.578E-03 0.237E-02

 POSITION                                       TOTAL-FORCE (eV/Angst)
      1.67927      1.19763      7.79733         0.046254      0.000003     -0.066455
      8.75493      3.59288      9.96367        -0.046254     -0.000003      0.066455
      3.53783      3.59288     16.67783        -0.046239     -0.000003     -0.066430
      6.89637      1.19763      1.08317         0.046239      0.000003      0.066430
      1.66861      1.19763      0.03521         0.060556      0.000001     -0.032152
      8.76559      3.59288     17.72579        -0.060556     -0.000001      0.032152
      3.54849      3.59288      8.91571        -0.060555     -0.000004     -0.032147
      6.88571      1.19763      8.84529         0.060555      0.000004      0.032147
      3.13268      1.19763      5.06151        -0.055061      0.000001      0.099676
      7.30152      3.59288     12.69949         0.055061     -0.000001     -0.099676
      2.08442      3.59288     13.94201         0.055064     -0.000002      0.099676
      8.34978      1.19763      3.81899        -0.055064      0.000002     -0.099676
      0.35353      1.19763     10.90043        -0.052842     -0.000002     -0.040431
     10.08067      3.59288      6.86057         0.052842      0.000002      0.040431
      4.86357      3.59288      2.01993         0.052834     -0.000003     -0.040430
      5.57063      1.19763     15.74107        -0.052834      0.000003      0.040430
      4.35243      1.19763     11.93416         0.000050      0.000002      0.000029
      6.08177      3.59288      5.82684        -0.000050     -0.000002     -0.000029
      0.86467      3.59288      3.05366        -0.000036     -0.000002      0.000026
      9.56953      1.19763     14.70734         0.000036      0.000002     -0.000026
    total drift:                               -0.000766      0.000027      0.000335

  FREE ENERGIE OF THE ION-ELECTRON SYSTEM (eV)
  free  energy   TOTEN  =       -70.98674365 eV

  energy  without entropy=      -71.01138999  energy(sigma->0) =      -70.99495909

 writing wavefunctions

 Spin-Orbit-Coupling matrix elements

 Ion:    1  E_soc:     -0.7235714
 l=   1
     0.0000000    -0.0560022    -0.0536352
    -0.0560022     0.0000000    -0.0570240
    -0.0536352    -0.0570240     0.0000000
 l=   2
     0.0000000    -0.0130227     0.0000000    -0.0130620    -0.0520277
    -0.0130227     0.0000000    -0.0390126    -0.0130055    -0.0129814
     0.0000000    -0.0390126     0.0000000    -0.0390515     0.0000000
    -0.0130620    -0.0130055    -0.0390515     0.0000000    -0.0129607
    -0.0520277    -0.0129814     0.0000000    -0.0129607     0.0000000
 l=   3
     0.0000000     0.0000000     0.0000000     0.0000000     0.0000000     0.0000000     0.0000000
     0.0000000     0.0000000     0.0000000     0.0000000     0.0000000     0.0000000     0.0000000
     0.0000000     0.0000000     0.0000000     0.0000000     0.0000000     0.0000000     0.0000000
     0.0000000     0.0000000     0.0000000     0.0000000     0.0000000     0.0000000     0.0000000
     0.0000000     0.0000000     0.0000000     0.0000000     0.0000000     0.0000000     0.0000000
     0.0000000     0.0000000     0.0000000     0.0000000     0.0000000     0.0000000     0.0000000
     0.0000000     0.0000000     0.0000000     0.0000000     0.0000000     0.0000000     0.0000000

[...]

 Ion:   20  E_soc:     -0.2771028
 l=   1
     0.0000000    -0.0461500    -0.0462054
    -0.0461500     0.0000000    -0.0460329
    -0.0462054    -0.0460329     0.0000000
 l=   2
     0.0000000    -0.0000170     0.0000000    -0.0000140    -0.0000466
    -0.0000170     0.0000000    -0.0000327    -0.0000125    -0.0000074
     0.0000000    -0.0000327     0.0000000    -0.0000253     0.0000000
    -0.0000140    -0.0000125    -0.0000253     0.0000000    -0.0000075
    -0.0000466    -0.0000074     0.0000000    -0.0000075     0.0000000
 l=   3
     0.0000000     0.0000000     0.0000000     0.0000000     0.0000000     0.0000000     0.0000000
     0.0000000     0.0000000     0.0000000     0.0000000     0.0000000     0.0000000     0.0000000
     0.0000000     0.0000000     0.0000000     0.0000000     0.0000000     0.0000000     0.0000000
     0.0000000     0.0000000     0.0000000     0.0000000     0.0000000     0.0000000     0.0000000
     0.0000000     0.0000000     0.0000000     0.0000000     0.0000000     0.0000000     0.0000000
     0.0000000     0.0000000     0.0000000     0.0000000     0.0000000     0.0000000     0.0000000
     0.0000000     0.0000000     0.0000000     0.0000000     0.0000000     0.0000000     0.0000000

 total charge

[...]

 magnetization (x)

[...]

 magnetization (y)

[...]

 magnetization (z)

# of ion       s       p       d       tot
    1        0.001   0.000  -0.000   0.001
    2       -0.001  -0.000   0.000  -0.001
    3       -0.001  -0.000   0.000  -0.001
    4        0.001   0.000  -0.000   0.001
    5        0.000  -0.001  -0.000  -0.001
    6       -0.000   0.001   0.000   0.001
    7       -0.000   0.001   0.000   0.001
    8        0.000  -0.001  -0.000  -0.000
    9       -0.000   0.001   0.000   0.001
   10        0.000  -0.001  -0.000  -0.001
   11        0.000  -0.001  -0.000  -0.001
   12       -0.000   0.001   0.000   0.001
   13       -0.000  -0.000   0.000  -0.000
   14        0.000   0.000  -0.000   0.000
   15        0.000   0.000  -0.000   0.000
   16       -0.000  -0.000   0.000  -0.000
   17       -0.000  -0.000  -0.000  -0.000
   18        0.000   0.000   0.000   0.000
   19        0.000   0.000   0.000   0.000
   20       -0.000  -0.000  -0.000  -0.000
tot          0.000   0.000  -0.000   0.001