 vasp.5.4.4.18Apr17-6-g9f103f2a35 (build Aug 19 2019 13:15:05) complex

 executed on             LinuxIFC date 2020.04.23  14:06:17

 INCAR:
 POTCAR:    PAW_PBE I 08Apr2002
 POTCAR:    PAW_PBE Pb_d 06Sep2000
 POTCAR:    PAW_PBE Cs_sv 08Apr2002

 POTCAR:    PAW_PBE I 08Apr2002
   VRHFIN =I : s2p5

   TITEL  = PAW_PBE I 08Apr2002
   POMASS =  126.904; ZVAL   =    7.000    mass and valenz
   ENMAX  =  175.647; ENMIN  =  131.735 eV

 POTCAR:    PAW_PBE Pb_d 06Sep2000
   VRHFIN =Pb:

   TITEL  = PAW_PBE Pb_d 06Sep2000
   POMASS =  207.200; ZVAL   =   14.000    mass and valenz
   ENMAX  =  237.835; ENMIN  =  178.376 eV

 POTCAR:    PAW_PBE Cs_sv 08Apr2002
   VRHFIN =Cs: 5s5p6s

   TITEL  = PAW_PBE Cs_sv 08Apr2002
   POMASS =  132.900; ZVAL   =    9.000    mass and valenz
   ENMAX  =  220.318; ENMIN  =  165.238 eV

 Optimization of the real space projectors (new method)

 maximal supplied QI-value         = 16.25
 optimisation between [QCUT,QGAM] = [ 10.73, 21.61] = [ 32.22,130.83] Ry
 Optimized for a Real-space Cutoff    1.30 Angstroem

   l    n(q)    QCUT    max X(q) W(low)/X(q) W(high)/X(q)  e(spline)
   0      8    10.726   194.483    0.28E-03    0.91E-04    0.87E-07
   0      8    10.726   190.334    0.27E-03    0.88E-04    0.85E-07
   1      8    10.726   116.687    0.16E-03    0.48E-03    0.15E-06
   1      8    10.726    88.696    0.16E-03    0.47E-03    0.15E-06
   2      7    10.726     4.877    0.19E-03    0.30E-04    0.27E-07
 Optimization of the real space projectors (new method)

[...]

   l    n(q)    QCUT    max X(q) W(low)/X(q) W(high)/X(q)  e(spline)
   2      8    10.734     3.846    0.42E-03    0.65E-04    0.45E-07
   2      8    10.734     8.593    0.38E-03    0.21E-03    0.11E-06
   0      9    10.734    20.082    0.60E-04    0.15E-03    0.97E-07
   0      9    10.734     8.597    0.89E-04    0.21E-03    0.14E-06
   1      8    10.734    33.223    0.23E-03    0.26E-03    0.11E-06
   1      8    10.734    15.899    0.21E-03    0.24E-03    0.10E-06
 Optimization of the real space projectors (new method)

 maximal supplied QI-value         = 15.12
 optimisation between [QCUT,QGAM] = [ 10.73, 21.62] = [ 32.26,130.87] Ry
 Optimized for a Real-space Cutoff    1.55 Angstroem

   l    n(q)    QCUT    max X(q) W(low)/X(q) W(high)/X(q)  e(spline)
   0     10    10.734    25.322    0.12E-03    0.12E-04    0.48E-06
   0     10    10.734    99.187    0.12E-03    0.12E-04    0.47E-06
   1     10    10.734    11.761    0.20E-03    0.42E-03    0.27E-06
   1     10    10.734     8.275    0.21E-03    0.46E-03    0.30E-06
   2      9    10.734     3.829    0.32E-03    0.79E-04    0.33E-06
  PAW_PBE I 08Apr2002                   :
  PAW_PBE Pb_d 06Sep2000                :
  PAW_PBE Cs_sv 08Apr2002               :

 POSCAR: CsPbI3_325K
  positions in direct lattice
  velocities in cartesian coordinates
 exchange correlation table for  LEXCH =        8
   RHO(1)=    0.500       N(1)  =     2000
   RHO(2)=  100.500       N(2)  =     4000

 ion  position               nearest neighbor table
   1  0.192  0.306  0.540-  14 3.21  13 3.21
   2  0.808  0.694  0.460-  14 3.21  13 3.21
   3  0.692  0.194  0.460-  13 3.21  14 3.21
   4  0.308  0.806  0.540-  13 3.21  14 3.21
   5  0.808  0.694  0.040-  16 3.21  15 3.21
   6  0.192  0.306  0.960-  16 3.21  15 3.21
   7  0.308  0.806  0.960-  15 3.21  16 3.21
   8  0.692  0.194  0.040-  15 3.21  16 3.21
   9  0.918  0.000  0.750-  15 3.21  13 3.21
  10  0.082  1.000  0.250-  13 3.21  15 3.21
  11  0.418  0.500  0.250-  14 3.21  16 3.21
  12  0.582  0.500  0.750-  16 3.21  14 3.21
  13  0.000  0.000  0.500-   3 3.21   4 3.21  10 3.21   9 3.21   1 3.21   2 3.21
  14  0.500  0.500  0.500-   2 3.21   1 3.21  11 3.21  12 3.21   3 3.21   4 3.21
  15  0.000  0.000  0.000-   8 3.21   7 3.21   9 3.21  10 3.21   6 3.21   5 3.21
  16  0.500  0.500  0.000-   5 3.21   6 3.21  12 3.21  11 3.21   8 3.21   7 3.21
  17  0.978  0.424  0.250-
  18  0.022  0.576  0.750-
  19  0.478  0.076  0.750-
  20  0.522  0.924  0.250-

  LATTYP: Found a simple orthorhombic cell.
 ALAT       =     8.6751003265
 B/A-ratio  =     1.0171640703
 C/A-ratio  =     1.4438795264

  Lattice vectors:

 A1 = (   8.6751003265,   0.0000000000,   0.0000000000)
 A2 = (   0.0000000000,   8.8240003586,   0.0000000000)
 A3 = (   0.0000000000,   0.0000000000,  12.5257997513)

Analysis of symmetry for initial positions (statically):
 Subroutine PRICEL returns:
 Original cell was already a primitive cell.

 Routine SETGRP: Setting up the symmetry group for a
 simple orthorhombic supercell.

 Subroutine GETGRP returns: Found  8 space group operations
 (whereof  2 operations were pure point group operations)
 out of a pool of  8 trial point group operations.

The static configuration has the point symmetry S_2 .
 The point group associated with its full space group is D_2h.

Analysis of symmetry for dynamics (positions and initial velocities):
 Subroutine PRICEL returns:
 Original cell was already a primitive cell.

 Routine SETGRP: Setting up the symmetry group for a
 simple orthorhombic supercell.

 Subroutine GETGRP returns: Found  8 space group operations
 (whereof  2 operations were pure point group operations)
 out of a pool of  8 trial point group operations.

The dynamic configuration has the point symmetry S_2 .
 The point group associated with its full space group is D_2h.

 Subroutine INISYM returns: Found  8 space group operations
 (whereof  2 operations are pure point group operations),
 and found     1 'primitive' translations

 KPOINTS: 0.080   1   1   1    1  0.080   44   12
  k-points in reciprocal lattice
Space group operators:
 irot       det(A)        alpha          n_x          n_y          n_z        tau_x        tau_y        tau_z
    1     1.000000     0.000000     1.000000     0.000000     0.000000     0.000000     0.000000     0.000000
    2    -1.000000     0.000000     1.000000     0.000000     0.000000     0.000000     0.000000     0.000000
    3     1.000000   180.000000     0.000000     0.000000     1.000000     0.000000     0.000000     0.500000
    4    -1.000000   180.000000     0.000000     0.000000     1.000000     0.000000     0.000000     0.500000
    5     1.000000   180.000000     0.000000     1.000000     0.000000     0.500000     0.500000     0.500000
    6    -1.000000   180.000000     0.000000     1.000000     0.000000     0.500000     0.500000     0.500000
    7     1.000000   179.999999     1.000000     0.000000     0.000000     0.500000     0.500000     0.000000
    8    -1.000000   179.999999     1.000000     0.000000     0.000000     0.500000     0.500000     0.000000

 Subroutine IBZKPT_HF returns following result:

 Found     45 k-points in 1st BZ
 the following     45 k-points will be used (e.g. in the exchange kernel)
 Following reciprocal coordinates:   # in IRBZ
  0.000000  0.000000  0.000000    1.00000000   1 t-inv F
  0.000000  0.000000  0.000000    0.00000000   2 t-inv F
  0.166667  0.000000  0.000000    0.00000000   3 t-inv F
  0.333333  0.000000  0.000000    0.00000000   4 t-inv F
  0.500000  0.000000  0.000000    0.00000000   5 t-inv F
  0.500000  0.000000  0.000000    0.00000000   6 t-inv F
  0.500000  0.166667  0.000000    0.00000000   7 t-inv F
  0.500000  0.333333  0.000000    0.00000000   8 t-inv F
  0.500000  0.500000  0.000000    0.00000000   9 t-inv F
  0.500000  0.500000  0.000000    0.00000000  10 t-inv F
  0.333333  0.500000  0.000000    0.00000000  11 t-inv F
  0.166667  0.500000  0.000000    0.00000000  12 t-inv F
  0.000000  0.500000  0.000000    0.00000000  13 t-inv F
  0.000000  0.500000  0.000000    0.00000000  14 t-inv F
  0.000000  0.333333  0.000000    0.00000000  15 t-inv F
  0.000000  0.166667  0.000000    0.00000000  16 t-inv F
  0.000000  0.000000  0.000000    0.00000000  17 t-inv F
  0.000000  0.000000  0.000000    0.00000000  18 t-inv F
  0.000000  0.000000  0.250000    0.00000000  19 t-inv F
  0.000000  0.000000  0.500000    0.00000000  20 t-inv F
  0.000000  0.000000  0.500000    0.00000000  21 t-inv F
  0.166667  0.000000  0.500000    0.00000000  22 t-inv F
  0.333333  0.000000  0.500000    0.00000000  23 t-inv F
  0.500000  0.000000  0.500000    0.00000000  24 t-inv F
  0.500000  0.000000  0.500000    0.00000000  25 t-inv F
  0.500000  0.166667  0.500000    0.00000000  26 t-inv F
  0.500000  0.333333  0.500000    0.00000000  27 t-inv F
  0.500000  0.500000  0.500000    0.00000000  28 t-inv F
  0.500000  0.500000  0.500000    0.00000000  29 t-inv F
  0.333333  0.500000  0.500000    0.00000000  30 t-inv F
  0.166667  0.500000  0.500000    0.00000000  31 t-inv F
  0.000000  0.500000  0.500000    0.00000000  32 t-inv F
  0.000000  0.500000  0.500000    0.00000000  33 t-inv F
  0.000000  0.333333  0.500000    0.00000000  34 t-inv F
  0.000000  0.166667  0.500000    0.00000000  35 t-inv F
  0.000000  0.000000  0.500000    0.00000000  36 t-inv F
  0.500000  0.000000  0.000000    0.00000000  37 t-inv F
  0.500000  0.000000  0.250000    0.00000000  38 t-inv F
  0.500000  0.000000  0.500000    0.00000000  39 t-inv F
  0.000000  0.500000  0.000000    0.00000000  40 t-inv F
  0.000000  0.500000  0.250000    0.00000000  41 t-inv F
  0.000000  0.500000  0.500000    0.00000000  42 t-inv F
  0.500000  0.500000  0.000000    0.00000000  43 t-inv F
  0.500000  0.500000  0.250000    0.00000000  44 t-inv F
  0.500000  0.500000  0.500000    0.00000000  45 t-inv F

 SYSTEM =  unknown system
 POSCAR =  CsPbI3_325K

 Startparameter for this run:
   NWRITE =      2    write-flag & timer
   PREC   = normal    normal or accurate (medium, high low for compatibility)
   ISTART =      1    job   : 0-new  1-cont  2-samecut
   ICHARG =     11    charge: 1-file 2-atom 10-const
   ISPIN  =      1    spin polarized calculation?
   LNONCOLLINEAR =      F non collinear calculations
   LSORBIT =      F    spin-orbit coupling
   INIWAV =      1    electr: 0-lowe 1-rand  2-diag
   LASPH  =      F    aspherical Exc in radial PAW
   METAGGA=      F    non-selfconsistent MetaGGA calc.

 Electronic Relaxation 1
   ENCUT  =  520.0 eV  33.07 Ry    5.75 a.u.  15.01 15.26 21.67*2*pi/ulx,y,z
   ENINI  =  520.0     initial cutoff
   ENAUG  =  407.9 eV  augmentation charge cutoff
   NELM   =     60;   NELMIN=  2; NELMDL=  0     # of ELM steps
   EDIFF  = 0.1E-05   stopping-criterion for ELM
   LREAL  =      T    real-space projection
   NLSPLINE    = F    spline interpolate recip. space projectors
   LCOMPAT=      F    compatible to vasp.4.4
   GGA_COMPAT  = T    GGA compatible to vasp.4.4-vasp.4.6
   LMAXPAW     = -100 max onsite density
   LMAXMIX     =    2 max onsite mixed and CHGCAR
   VOSKOWN=      0    Vosko Wilk Nusair interpolation
   ROPT   =   -0.00050  -0.00050  -0.00050
 Ionic relaxation
   EDIFFG = 0.1E-04   stopping-criterion for IOM
   NSW    =      0    number of steps for IOM
   NBLOCK =      1;   KBLOCK =      1    inner block; outer block
   IBRION =     -1    ionic relax: 0-MD 1-quasi-New 2-CG
   NFREE  =      0    steps in history (QN), initial steepest desc. (CG)
   ISIF   =      0    stress and relaxation
   IWAVPR =     10    prediction:  0-non 1-charg 2-wave 3-comb
   ISYM   =      3    0-nonsym 1-usesym 2-fastsym
[...]

 maximum and minimum number of plane-waves per node :     20828    20716

 maximum number of plane-waves:     20828
 maximum index in each direction:
   IXMAX=   15   IYMAX=   15   IZMAX=   21
   IXMIN=  -15   IYMIN=  -15   IZMIN=  -22

 serial   3D FFT for wavefunctions
 parallel 3D FFT for charge:
    minimum data exchange during FFTs selected (reduces bandwidth)

 Radii for the augmentation spheres in the non-local exchange
 for species   1 augmentation radius   1.484 (default was   1.188)
       energy cutoff for augmentation   1800.0
 for species   2 augmentation radius   1.443 (default was   1.154)
       energy cutoff for augmentation   1800.0
 for species   3 augmentation radius   1.414 (default was   1.131)
       energy cutoff for augmentation   1800.0
 Maximum index for augmentation-charges in exchange         2310
  SETUP_FOCK is finished

 initial charge density was supplied:
 number of electron     175.9999998 magnetization
 keeping initial charge density in first step

 Maximum index for non-local projection operator         2576
 Maximum index for augmentation-charges         2033 (set IRDMAX)

 First call to EWALD:  gamma=   0.180
 Maximum number of real-space cells 3x 3x 2
 Maximum number of reciprocal cells 2x 3x 3

--------------------------------------- Iteration      1(   1)  ---------------------------------------

 eigenvalue-minimisations  :     0
 total energy-change (2. order) :-0.6521497E+02  (-0.2936076E-02)
 number of electron     175.9999998 magnetization
 augmentation part      175.9999998 magnetization

 Free energy of the ion-electron system (eV)
  alpha Z        PSCENC =       274.57589780
  Ewald energy   TEWEN  =     -8733.92648156
  -Hartree energ DENC   =     -3543.20239058
  -exchange      EXHF   =       318.86355116
  -V(xc)+E(xc)   XCENC  =        13.63338186
  PAW double counting   =     15592.28886958   -15232.74816436
  entropy T*S    EENTRO =        -0.00000000
  eigenvalues    EBANDS =     -1397.03626069
  atomic energy  EATOM  =     12642.33662683
  free energy    TOTEN  =       -65.21496996 eV

  energy without entropy =      -65.21496996  energy(sigma->0) =      -65.21496996
  exchange ACFDT corr.  =        -0.00000000  see jH, gK, PRB 81, 115126

[...]

--------------------------------------- Iteration      1(  13)  ---------------------------------------

 eigenvalue-minimisations  :     0
 total energy-change (2. order) :-0.5303518E-06  (-0.1616696E-06)
 number of electron     175.9999998 magnetization
 augmentation part      175.9999998 magnetization

 Free energy of the ion-electron system (eV)
  alpha Z        PSCENC =       274.57589780
  Ewald energy   TEWEN  =     -8733.92648156
  -Hartree energ DENC   =     -3543.20239058
  -exchange      EXHF   =       318.99641799
  -V(xc)+E(xc)   XCENC  =        13.63338186
  PAW double counting   =     15592.28886958   -15232.74816436
  entropy T*S    EENTRO =        -0.00000000
  eigenvalues    EBANDS =     -1397.17540130
  atomic energy  EATOM  =     12642.33662683
  free energy    TOTEN  =       -65.22117309 eV

  energy without entropy =      -65.22117309  energy(sigma->0) =      -65.22117309
  exchange ACFDT corr.  =        -0.00000000  see jH, gK, PRB 81, 115126

  average scaling for gradient   1.0427

 average (electrostatic) potential at core
  the test charge radii are     1.1875  1.1541  1.1312
  (the norm of the test charge is              1.0000)
       1 -89.6025       2 -89.6025       3 -89.6025       4 -89.6025       5 -89.6025
       6 -89.6025       7 -89.6025       8 -89.6025       9 -89.5768      10 -89.5768
      11 -89.5768      12 -89.5768      13 -89.7922      14 -89.7923      15 -89.7922
      16 -89.7923      17 -45.5508      18 -45.5508      19 -45.5508      20 -45.5508

 E-fermi :   1.3381     XC(G=0):  -6.3178     alpha+bet : -7.7161

 k-point     1 :       0.0000    0.0000    0.0000
  band No.  band energies     occupation
      1     -21.1939      2.00000
      2     -21.1933      2.00000
      3     -21.1921      2.00000
      4     -21.1916      2.00000
      5     -17.0779      2.00000
      6     -17.0768      2.00000
      7     -17.0767      2.00000
      8     -17.0726      2.00000
      9     -17.0686      2.00000
     10     -17.0631      2.00000
     11     -17.0610      2.00000
     12     -17.0609      2.00000
     13     -17.0199      2.00000
     14     -17.0196      2.00000
     15     -17.0191      2.00000
     16     -17.0187      2.00000
     17     -17.0144      2.00000
     18     -17.0142      2.00000
     19     -17.0138      2.00000
     20     -17.0136      2.00000
     21     -17.0099      2.00000
     22     -17.0096      2.00000
     23     -17.0087      2.00000
     24     -17.0085      2.00000
     25     -12.0090      2.00000
     26     -11.8203      2.00000
     27     -11.5388      2.00000
     28     -11.5104      2.00000
     29     -11.5080      2.00000
     30     -11.4934      2.00000
     31     -11.4887      2.00000
     32     -11.4763      2.00000
     33     -11.4693      2.00000
     34     -11.2899      2.00000
     35     -11.2788      2.00000
     36     -11.2775      2.00000
     37      -7.6544      2.00000
     38      -7.1720      2.00000
     39      -7.0738      2.00000
     40      -7.0701      2.00000
     41      -7.0595      2.00000
     42      -7.0594      2.00000
     43      -7.0559      2.00000
     44      -7.0502      2.00000
     45      -7.0475      2.00000
     46      -7.0437      2.00000
     47      -7.0285      2.00000
     48      -7.0098      2.00000
     49      -7.0084      2.00000
     50      -6.9718      2.00000
     51      -6.5757      2.00000
     52      -6.0313      2.00000
     53      -2.4110      2.00000
     54      -2.4079      2.00000
     55      -2.3196      2.00000
     56      -2.2602      2.00000
     57      -2.1437      2.00000
     58      -2.0791      2.00000
     59      -1.2920      2.00000
     60      -1.0411      2.00000
[...]
    226      16.9663      0.00000
    227      16.9874      0.00000
    228      17.0694      0.00000
    229      17.1201      0.00000
    230      17.2176      0.00000
    231      17.2829      0.00000
    232      17.4391      0.00000
    233      17.4572      0.00000
    234      17.5513      0.00000
    235      17.8041      0.00000
    236      17.8316      0.00000
    237      18.0324      0.00000
    238      18.1654      0.00000
    239      18.4121      0.00000
    240      18.6624      0.00000

[...]

 k-point    45 :       0.5000    0.5000    0.5000
  band No.  band energies     occupation
      1     -21.1931      2.00000
      2     -21.1931      2.00000
      3     -21.1931      2.00000
      4     -21.1931      2.00000
      5     -17.0710      2.00000
      6     -17.0710      2.00000
      7     -17.0710      2.00000
      8     -17.0710      2.00000
      9     -17.0612      2.00000
     10     -17.0612      2.00000
     11     -17.0612      2.00000
     12     -17.0611      2.00000
     13     -17.0158      2.00000
     14     -17.0158      2.00000
     15     -17.0158      2.00000
     16     -17.0158      2.00000
     17     -17.0109      2.00000
     18     -17.0109      2.00000
     19     -17.0108      2.00000
     20     -17.0108      2.00000
     21     -17.0044      2.00000
     22     -17.0044      2.00000
     23     -17.0043      2.00000
     24     -17.0043      2.00000
     25     -11.7225      2.00000
     26     -11.7225      2.00000
     27     -11.7225      2.00000
     28     -11.7225      2.00000
     29     -11.5178      2.00000
     30     -11.5178      2.00000
     31     -11.5178      2.00000
     32     -11.5178      2.00000
     33     -11.3239      2.00000
     34     -11.3239      2.00000
     35     -11.3239      2.00000
     36     -11.3239      2.00000
     37      -7.0840      2.00000
     38      -7.0840      2.00000
     39      -7.0840      2.00000
     40      -7.0840      2.00000
     41      -7.0480      2.00000
     42      -7.0480      2.00000
     43      -7.0480      2.00000
     44      -7.0480      2.00000
     45      -7.0057      2.00000
     46      -7.0057      2.00000
     47      -7.0057      2.00000
     48      -7.0057      2.00000
     49      -6.8148      2.00000
     50      -6.8148      2.00000
     51      -6.8148      2.00000
     52      -6.8148      2.00000
     53      -2.1482      2.00000
     54      -2.1482      2.00000
     55      -2.1482      2.00000
     56      -2.1482      2.00000
     57      -1.5133      2.00000
     58      -1.5133      2.00000
     59      -1.5133      2.00000
     60      -1.5133      2.00000
[...]
    226      17.1178      0.00000
    227      17.1900      0.00000
    228      17.2717      0.00000
    229      17.3487      0.00000
    230      17.4275      0.00000
    231      17.5080      0.00000
    232      17.7672      0.00000
    233      17.9558      0.00000
    234      17.9598      0.00000
    235      18.0910      0.00000
    236      18.0923      0.00000
    237      18.2353      0.00000
    238      18.4318      0.00000
    239      18.7027      0.00000
    240      18.9729      0.00000

 soft charge-density along one line, spin component           1
         0         1         2         3         4         5         6         7         8         9
 total charge-density along one line

------------------------ aborting loop because EDIFF is reached ----------------------------------------

 total charge

# of ion       s       p       d       tot
    1        1.498   2.940   0.005   4.443
    2        1.498   2.940   0.005   4.443
    3        1.498   2.940   0.005   4.443
    4        1.498   2.940   0.005   4.443
    5        1.498   2.940   0.005   4.443
    6        1.498   2.940   0.005   4.443
    7        1.498   2.940   0.005   4.443
    8        1.498   2.940   0.005   4.443
    9        1.499   2.936   0.005   4.441
   10        1.499   2.936   0.005   4.441
   11        1.499   2.936   0.005   4.441
   12        1.499   2.936   0.005   4.441
   13        1.548   0.372   9.847  11.767
   14        1.548   0.372   9.847  11.767
   15        1.548   0.372   9.847  11.767
   16        1.548   0.372   9.847  11.767
   17        2.291   4.729   0.019   7.038
   18        2.291   4.729   0.019   7.038
   19        2.291   4.729   0.019   7.038
   20        2.291   4.729   0.019   7.038
tot         33.342  55.666  39.521 128.529

 VOLUME and BASIS-vectors are now :
  energy-cutoff  :      450.00
  volume of cell :      958.84
      direct lattice vectors                 reciprocal lattice vectors
     8.675100327  0.000000000  0.000000000     0.115272442  0.000000000  0.000000000
     0.000000000  8.824000359  0.000000000     0.000000000  0.113327285  0.000000000
     0.000000000  0.000000000 12.525799751     0.000000000  0.000000000  0.079835222

  length of vectors
     8.675100327  8.824000359 12.525799751     0.115272442  0.113327285  0.079835222

 FORCES acting on ions
    electron-ion (+dipol)            ewald-force                    non-local-force                 convergence-correction
   0.225E+02 -.179E+02 -.157E+02   -.244E+02 0.195E+02 0.175E+02   0.117E+01 -.104E+01 -.105E+01   0.422E+00 -.361E+00 -.473E+00
   -.225E+02 0.179E+02 0.157E+02   0.244E+02 -.195E+02 -.175E+02   -.117E+01 0.104E+01 0.105E+01   -.422E+00 0.361E+00 0.473E+00
   0.225E+02 0.179E+02 0.157E+02   -.244E+02 -.195E+02 -.175E+02   0.117E+01 0.104E+01 0.105E+01   0.422E+00 0.361E+00 0.473E+00
   -.225E+02 -.179E+02 -.157E+02   0.244E+02 0.195E+02 0.175E+02   -.117E+01 -.104E+01 -.105E+01   -.422E+00 -.361E+00 -.473E+00
   -.225E+02 0.179E+02 -.157E+02   0.244E+02 -.195E+02 0.175E+02   -.117E+01 0.104E+01 -.105E+01   -.422E+00 0.361E+00 -.473E+00
   0.225E+02 -.179E+02 0.157E+02   -.244E+02 0.195E+02 -.175E+02   0.117E+01 -.104E+01 0.105E+01   0.422E+00 -.361E+00 0.473E+00
   -.225E+02 -.179E+02 0.157E+02   0.244E+02 0.195E+02 -.175E+02   -.117E+01 -.104E+01 0.105E+01   -.422E+00 -.361E+00 0.473E+00
   0.225E+02 0.179E+02 -.157E+02   -.244E+02 -.195E+02 0.175E+02   0.117E+01 0.104E+01 -.105E+01   0.422E+00 0.361E+00 -.473E+00
   0.331E+02 -.123E+02 -.142E-04   -.354E+02 0.124E+02 -.595E-04   0.151E+01 -.194E+00 0.000E+00   0.465E+00 0.517E-01 0.740E-04
   -.331E+02 0.123E+02 0.864E-04   0.354E+02 -.124E+02 0.101E-04   -.151E+01 0.194E+00 0.000E+00   -.465E+00 -.517E-01 -.732E-04
   0.331E+02 0.123E+02 0.717E-04   -.354E+02 -.124E+02 0.101E-04   0.151E+01 0.194E+00 0.000E+00   0.465E+00 -.517E-01 -.757E-04
   -.331E+02 -.123E+02 0.459E-05   0.354E+02 0.124E+02 -.595E-04   -.151E+01 -.194E+00 0.000E+00   -.465E+00 0.517E-01 0.734E-04
   -.231E-04 0.428E-04 -.986E-04   -.946E-05 -.823E-04 0.310E-04   0.000E+00 0.000E+00 0.000E+00   0.117E-04 0.289E-04 0.460E-04
   0.593E-04 0.728E-04 -.637E-04   -.780E-04 -.228E-04 0.438E-04   0.000E+00 0.000E+00 0.000E+00   0.742E-05 -.360E-04 0.196E-04
   -.203E-04 0.107E-03 0.275E-04   -.251E-06 -.790E-04 0.141E-04   0.000E+00 0.000E+00 0.000E+00   0.795E-05 -.776E-05 -.415E-04
   0.896E-05 0.238E-04 0.461E-04   -.872E-04 -.195E-04 0.123E-05   0.000E+00 0.000E+00 0.000E+00   0.535E-04 -.270E-05 -.339E-04
   -.933E+01 -.265E+02 0.936E-04   0.945E+01 0.266E+02 0.141E-04   -.967E-01 0.438E-01 -.529E-22   -.429E-01 -.113E+00 -.108E-03
   0.933E+01 0.265E+02 -.367E-04   -.945E+01 -.266E+02 -.367E-04   0.967E-01 -.438E-01 0.000E+00   0.429E-01 0.113E+00 0.864E-04
   -.933E+01 0.265E+02 -.258E-04   0.945E+01 -.266E+02 -.367E-04   -.967E-01 -.438E-01 0.000E+00   -.429E-01 0.113E+00 0.738E-04
   0.933E+01 -.265E+02 0.767E-04   -.945E+01 0.266E+02 0.141E-04   0.967E-01 0.438E-01 0.000E+00   0.429E-01 -.113E+00 -.914E-04
   -.241E-03 0.157E-03 0.142E-03   0.178E-14 0.284E-13 -.185E-13   0.680E-15 0.250E-15 -.529E-22   0.100E-03 -.399E-04 -.622E-04

 POSITION                                       TOTAL-FORCE (eV/Angst)
      1.66797      2.69903      6.76746        -0.184569      0.140785      0.242916
      7.00713      6.12497      5.75834         0.184569     -0.140785     -0.242916
      6.00552      1.71297      5.75834        -0.184569     -0.140785     -0.242916
      2.66958      7.11103      6.76746         0.184569      0.140785      0.242916
      7.00713      6.12497      0.50456         0.184569     -0.140785      0.242916
      1.66797      2.69903     12.02124        -0.184569      0.140785     -0.242916
      2.66958      7.11103     12.02124         0.184569      0.140785     -0.242916
      6.00552      1.71297      0.50456        -0.184569     -0.140785      0.242916
      7.96010      0.00066      9.39435        -0.222496     -0.052833     -0.000000
      0.71500      8.82334      3.13145         0.222496      0.052833     -0.000000
      3.62255      4.41134      3.13145        -0.222496      0.052833     -0.000000
      5.05255      4.41266      9.39435         0.222496     -0.052833     -0.000000
      0.00000      0.00000      6.26290        -0.000000      0.000000     -0.000000
      4.33755      4.41200      6.26290        -0.000000      0.000000     -0.000000
      0.00000      0.00000      0.00000        -0.000000      0.000000     -0.000000
      4.33755      4.41200      0.00000        -0.000000      0.000000     -0.000000
      8.48474      3.74480      3.13145        -0.017987     -0.042055     -0.000000
      0.19036      5.07920      9.39435         0.017987      0.042055     -0.000000
      4.14719      0.66720      9.39435        -0.017987      0.042055     -0.000000
      4.52791      8.15680      3.13145         0.017987     -0.042055      0.000000
    total drift:                               -0.000140      0.000117      0.000080

  FREE ENERGIE OF THE ION-ELECTRON SYSTEM (eV)
  free  energy   TOTEN  =       -65.22117309 eV

  energy  without entropy=      -65.22117309  energy(sigma->0) =      -65.22117309

 total charge

# of ion       s       p       d       tot
    1        1.498   2.940   0.005   4.443
    2        1.498   2.940   0.005   4.443
    3        1.498   2.940   0.005   4.443
    4        1.498   2.940   0.005   4.443
    5        1.498   2.940   0.005   4.443
    6        1.498   2.940   0.005   4.443
    7        1.498   2.940   0.005   4.443
    8        1.498   2.940   0.005   4.443
    9        1.499   2.936   0.005   4.441
   10        1.499   2.936   0.005   4.441
   11        1.499   2.936   0.005   4.441
   12        1.499   2.936   0.005   4.441
   13        1.548   0.372   9.847  11.767
   14        1.548   0.372   9.847  11.767
   15        1.548   0.372   9.847  11.767
   16        1.548   0.372   9.847  11.767
   17        2.291   4.729   0.019   7.038
   18        2.291   4.729   0.019   7.038
   19        2.291   4.729   0.019   7.038
   20        2.291   4.729   0.019   7.038
tot         33.342  55.666  39.521 128.529